c MORPH-SAT unlabeled compact AND/OR/NOT tissue flagship
p cnf 608 1472
366 -112 0
218 62 0
-182 405 -120 0
384 341 0
-9 59 0
-547 501 0
279 116 -608 0
-247 211 0
-437 411 -151 0
176 458 0
212 -571 0
-66 39 172 0
591 52 0
-306 -142 0
-487 181 0
402 -19 228 0
-415 412 0
-492 -208 -297 0
559 452 330 0
68 -392 -584 0
-47 254 0
-75 -53 0
223 32 0
560 130 0
-195 395 58 0
131 -369 0
-30 525 0
253 -575 -29 0
-322 -57 -87 0
492 208 0
-563 9 0
259 210 0
120 43 0
417 -227 0
263 -338 0
299 83 0
-329 369 0
17 -65 0
322 -364 0
-299 -470 -22 0
573 -400 0
553 -245 0
371 -432 0
-418 -165 0
-114 294 84 0
-403 262 0
-152 585 0
-404 577 0
478 85 0
189 333 537 0
-411 151 0
277 161 235 0
276 -203 0
-589 -298 0
332 -147 0
66 -168 0
554 572 0
354 513 -111 0
13 607 -219 0
-510 355 0
-129 -396 0
-105 0
71 -332 0
471 -266 0
278 -129 -514 0
-20 607 0
64 371 529 0
171 -495 338 0
516 -12 0
-293 -83 0
-563 187 -232 0
-337 -180 0
66 481 -39 0
-421 -92 0
515 361 -429 0
60 422 0
-88 -201 0
426 410 0
282 -399 0
597 269 0
266 -471 -50 0
-35 196 0
424 -277 0
-602 -481 0
-289 -16 0
553 -465 0
492 -431 250 0
-211 247 -206 0
-372 -102 0
219 -13 0
344 0
-541 -487 -199 0
194 -350 0
205 -566 0
-394 -166 -597 0
575 -396 0
239 318 0
328 -356 0
-574 -266 50 0
-26 447 0
-326 -125 0
-445 186 0
-582 80 0
383 -578 0
-516 77 -413 0
-133 456 0
-343 -312 0
13 272 -537 0
377 -245 0
406 -466 0
-479 -56 0
-241 131 0
63 -46 -177 0
404 -82 0
-323 472 -141 0
70 -193 418 0
-430 125 -60 0
-236 -393 -332 0
389 408 505 0
-315 -288 0
-173 -531 0
-593 0
-65 48 0
275 -230 0
489 139 0
392 -68 0
497 135 0
-485 -31 0
-510 155 0
518 384 0
-222 -280 0
599 12 0
-524 -246 0
-294 114 0
273 598 0
-482 418 165 0
-481 39 0
312 538 -236 0
-602 172 -72 0
372 566 0
430 0
525 3 0
-504 -150 -334 0
253 551 0
482 -165 0
-103 442 -453 0
-408 -389 0
-362 11 0
14 579 0
-426 111 135 0
454 -590 -211 0
-87 -421 0
-265 -174 0
-305 -180 -195 0
-237 57 0
594 -448 0
-117 108 308 0
-441 420 0
550 -421 0
547 -501 0
126 -290 0
100 -194 350 0
101 -401 0
-112 -385 0
-397 -128 0
-89 -275 0
-553 465 0
-191 576 0
-279 461 -150 0
-417 21 0
192 224 0
566 -205 0
371 -317 0
98 -145 0
47 69 0
-567 -295 -594 0
296 -251 0
-99 -517 0
331 -19 8 0
587 316 0
-445 -505 -383 0
-543 380 0
80 548 0
-558 509 0
8 462 0
-2 382 0
232 -187 0
-300 -108 -308 0
-231 274 0
-424 339 0
-115 311 0
470 178 0
506 15 0
-205 -499 259 0
-142 -603 0
378 456 0
104 0
-148 -134 0
-95 -230 0
-414 1 0
202 517 -135 0
-212 -223 571 0
603 156 0
-363 369 474 0
-354 111 0
417 -21 443 0
544 -472 0
603 276 0
594 -101 567 0
313 424 0
-113 592 0
-326 447 422 0
406 -333 0
338 124 0
451 407 0
-5 256 0
68 -92 283 0
549 284 0
46 -249 0
55 -85 0
54 -148 -38 0
14 37 137 0
-359 -491 -59 0
-577 404 504 0
-190 497 0
226 440 0
231 -274 0
-243 -518 0
486 -353 0
-302 -508 0
-595 495 0
526 -441 0
-439 604 0
361 213 545 0
-580 -69 -390 0
-450 271 0
476 139 0
-106 -234 0
268 -488 0
-34 0
279 -28 0
-397 386 0
117 -108 0
-285 473 0
-159 -413 0
-138 136 -477 0
-172 72 0
301 -216 0
-159 -539 0
-142 45 0
209 195 180 0
597 394 0
-494 335 0
381 227 0
-32 587 0
-33 -1 0
-102 -176 0
8 343 312 0
284 -417 0
309 -543 0
-103 229 -7 0
-144 -237 -151 0
-466 -160 282 0
-397 12 -516 0
-316 -587 43 0
-422 -60 0
3 555 0
496 109 0
-577 291 0
-14 -137 0
408 423 0
-233 -446 0
-183 171 90 0
-16 490 0
-96 93 -180 0
-571 534 0
-559 -452 0
28 608 -279 0
-133 -408 0
536 479 0
305 180 0
312 462 0
123 33 0
194 -100 0
456 -152 -561 0
-25 400 0
256 416 0
322 273 87 0
-299 545 -83 0
580 -254 0
-107 -403 322 0
440 -264 0
-306 -603 -276 0
-496 -563 0
-47 -259 0
132 330 0
-319 -281 -325 0
-336 -302 0
-556 0
-259 -210 499 0
317 -348 -371 0
365 -605 0
473 -48 -33 0
488 -268 0
-434 153 0
391 443 -524 0
-65 0
168 250 -245 0
-370 459 254 0
29 575 304 0
175 416 0
-590 181 0
-460 385 -306 0
-315 399 0
578 -383 0
-184 -459 0
267 -468 0
-43 316 0
-595 -477 0
22 293 0
-169 112 0
429 303 -361 0
-368 574 0
237 144 0
-473 -247 0
180 -93 0
-50 574 0
-12 397 -386 0
281 319 0
-83 353 -512 0
511 -519 0
421 92 87 0
-593 163 533 0
-58 225 0
-379 -184 0
-288 160 0
390 580 0
-302 170 0
445 -439 454 0
325 537 0
264 -344 0
21 246 0
-509 558 157 0
-149 54 0
431 -492 0
72 0
193 -418 0
214 -362 0
148 -555 -3 0
485 287 -242 0
423 505 0
396 -575 349 0
-520 -532 0
570 198 -464 0
54 -134 0
-224 64 451 0
79 -204 0
-92 360 0
388 177 0
449 -509 0
578 444 0
4 447 0
70 521 0
278 575 -349 0
-283 -68 0
-292 0
-536 81 0
280 -308 -99 0
-567 101 0
141 -227 0
254 -580 -259 0
315 -399 0
-119 -7 0
583 555 0
76 437 -258 0
-115 -464 0
71 -67 0
-307 -480 0
260 -108 0
-284 -381 -549 0
242 -287 0
-475 -561 0
-184 0
-270 -327 512 0
-512 -436 0
-4 36 0
-532 229 0
506 -567 0
-188 178 0
-108 -213 0
-331 19 0
-146 405 0
-559 519 0
-228 19 0
-64 224 0
-507 0
173 531 432 0
-168 -250 0
-19 -490 0
-473 589 0
-460 -169 0
-207 452 0
-456 561 475 0
299 -545 0
295 567 0
270 -541 0
179 -395 0
314 118 0
546 437 151 0
-219 -20 0
588 23 0
411 132 0
-235 -277 0
376 -323 0
-221 -75 153 0
11 -138 0
174 265 0
-69 -47 0
275 401 0
185 309 0
551 -467 0
199 -327 0
-32 -429 0
228 107 -219 0
-381 -227 0
-169 -206 0
-282 -527 -249 0
-91 556 -534 0
366 25 0
441 -526 0
-419 110 0
152 -456 0
-605 0
106 -373 0
-266 -86 0
-148 555 0
99 -280 0
539 592 390 0
565 185 0
481 602 0
579 37 0
460 306 0
244 333 0
559 -519 0
-8 490 19 0
467 -551 304 0
-50 -463 -365 0
491 59 0
-370 -579 6 0
-282 46 0
-209 -195 0
-514 0
370 579 0
-193 311 570 0
138 328 0
-412 0
262 -226 0
-42 -334 0
-477 11 0
131 -257 0
498 584 0
-79 197 0
245 380 0
-308 -202 0
-61 -606 0
233 446 0
245 -168 0
445 505 -186 0
51 -433 451 0
431 -250 0
100 -351 0
-506 -15 0
-499 210 0
593 -533 0
471 292 0
577 -504 -49 0
-347 -163 0
67 -71 0
-198 -570 0
185 74 0
339 288 0
-371 -64 432 0
-88 176 0
-119 -453 0
340 455 0
249 -146 0
-81 -238 -286 0
608 -116 0
-133 -311 0
-206 -298 0
-51 433 0
50 365 0
-507 -434 0
-478 -85 -608 0
-272 537 0
558 -222 0
-94 320 -407 0
-369 363 0
127 -188 0
452 382 0
-598 -57 237 0
75 221 53 0
279 150 0
250 62 0
-604 590 211 0
362 -11 -214 0
212 429 0
-201 486 526 0
295 275 0
-190 0
-569 415 0
-239 387 0
270 -512 0
413 -480 0
158 545 0
-171 495 0
370 -6 0
201 438 0
-546 -437 0
315 -160 288 0
-501 336 0
314 0
-70 -418 0
-187 49 0
305 195 0
232 -105 0
-463 41 -324 0
-532 562 0
-197 79 0
581 449 0
-314 -118 134 0
395 -179 23 0
-18 356 0
492 62 0
274 -154 0
279 -461 0
591 14 494 0
-538 -312 0
-429 -303 0
140 -392 -483 0
518 -485 0
-408 -311 358 0
-522 -351 0
463 365 0
-36 4 0
156 416 0
-469 -523 0
-111 162 0
-533 -198 0
-405 155 0
-445 439 0
325 333 0
539 -480 0
38 148 0
18 0
370 -459 0
419 -110 550 0
314 -134 0
446 -27 -435 0
-175 -457 0
-190 -410 0
14 130 0
186 -505 0
-3 -525 -393 0
-476 599 0
-55 -43 85 0
-22 -293 0
-154 80 0
-107 -228 0
-45 -203 0
-265 583 0
349 -278 0
92 -68 -360 0
-252 -483 0
-349 -366 -573 0
-198 464 0
415 -388 -412 0
-405 120 0
95 73 230 0
-58 -395 0
552 458 0
-329 -357 0
-261 -605 0
-579 -37 -14 0
-193 -115 0
-29 -304 0
-62 -218 0
-128 -91 0
562 229 -52 0
520 532 0
-339 -161 0
522 -350 0
-520 -52 -591 0
-328 356 0
-84 291 0
302 336 -170 0
-148 3 -174 0
283 -7 398 0
163 347 0
-372 -566 -210 0
-447 26 -4 0
240 254 0
-106 31 -374 0
-557 -561 -36 0
-362 0
-10 -301 0
-355 -146 0
-235 -161 0
500 -127 0
397 516 0
318 607 0
-225 377 0
-213 -545 0
330 -546 0
241 -329 0
206 298 211 0
-361 -213 0
-375 478 0
-67 -241 147 0
30 -332 0
73 -89 0
-459 -254 0
-199 327 -512 0
57 322 0
607 239 -498 0
97 582 0
173 0
-451 224 0
-436 -83 0
-32 -223 0
-203 0
-181 -468 0
-587 429 32 0
261 122 0
-295 -275 -401 0
391 -251 -324 0
506 419 0
-564 486 0
200 -352 88 0
420 0
554 35 0
99 517 0
76 -89 0
128 -571 397 0
-476 -345 -244 0
-256 5 -450 0
-232 105 -109 0
-145 -162 0
-170 233 0
377 543 0
-584 -167 -498 0
-42 255 0
-447 125 326 0
535 84 0
567 -143 0
202 308 -280 0
-267 0
94 -433 0
-38 118 0
-582 156 0
369 -24 0
143 -567 419 0
-374 290 -126 0
-294 -581 -449 0
586 317 0
-220 394 166 0
169 460 0
-21 -246 0
477 -136 0
174 -3 0
599 -425 0
286 0
218 -431 70 0
-505 -389 0
-508 -547 0
-76 89 275 0
-151 -546 0
361 158 0
91 -556 0
-136 138 0
41 296 0
308 300 0
-305 -522 -217 0
38 -54 0
199 512 0
-442 0
-333 -189 0
20 219 -607 0
-462 -56 0
540 337 0
-402 19 0
98 -354 0
571 -397 -534 0
301 10 0
335 -560 -130 0
-156 -175 -416 0
144 -600 0
143 15 596 0
33 -39 1 0
-263 297 -334 0
285 -473 33 0
99 308 0
424 -339 -288 0
469 -424 0
-335 560 0
-543 -197 185 0
-147 524 0
186 444 0
-428 -44 0
-316 182 0
-569 -25 0
-537 -189 0
81 286 0
491 359 0
-588 -23 0
372 458 0
-53 -221 0
-601 85 0
-537 -333 -325 0
266 24 86 0
259 580 0
-484 342 0
248 117 0
115 464 0
247 -589 473 0
-531 529 0
290 -234 0
-26 -561 0
435 -200 0
-568 -461 0
463 -41 0
-478 375 0
60 430 0
234 106 -31 0
-261 -122 0
126 374 0
-481 -66 0
-2 55 0
-237 598 0
-443 -417 0
71 -524 0
-523 -29 0
64 -432 0
-389 -221 0
-488 554 474 0
58 588 0
-404 82 0
426 -111 0
305 522 0
-113 -484 0
182 -405 0
-399 -466 0
-370 240 0
148 174 0
48 -473 0
191 -76 -437 0
-31 243 518 0
-320 94 0
291 54 0
-153 434 0
181 468 0
196 562 0
198 -37 533 0
217 522 0
307 480 503 0
-594 448 226 0
121 -201 0
-131 257 0
-122 463 50 0
-58 380 0
-562 387 0
394 375 0
311 -358 0
535 577 0
-37 -137 0
239 196 0
179 -23 0
-15 -596 0
122 -463 0
-277 -288 0
130 591 0
-137 6 0
-560 0
220 -409 0
187 -496 0
-570 -311 0
108 300 0
-569 -177 0
330 -207 0
522 -557 351 0
232 563 0
-164 394 0
-246 391 0
-123 -33 39 0
162 513 0
-211 -298 0
-608 -28 0
584 167 0
107 502 0
-229 103 0
501 170 -336 0
-37 347 0
-550 421 0
334 150 0
437 -191 0
537 -13 0
289 331 16 0
557 350 -522 0
-538 -154 0
-40 303 0
198 347 0
-181 590 487 0
319 189 0
536 -81 0
37 -533 0
413 -77 0
-64 -451 373 0
328 -491 0
-10 2 0
-53 -507 0
-1 39 0
-353 83 0
495 428 166 0
-18 528 0
-544 472 0
223 -571 0
193 -311 115 0
141 417 -284 0
-526 -486 0
-449 509 0
-124 183 0
-504 -404 0
128 91 0
597 166 0
-74 208 0
-604 439 0
-338 -124 495 0
323 141 -376 0
154 -274 538 0
286 238 0
470 -500 -323 0
269 0
26 557 561 0
-343 -8 0
-98 0
284 -141 0
-448 -344 0
309 -204 0
162 145 0
390 342 0
-562 -239 -196 0
-211 604 0
487 -78 0
-300 -542 0
408 -358 0
-583 0
-479 238 0
-357 257 0
493 601 0
67 241 0
-510 0
500 323 0
606 558 -280 0
564 -436 0
-217 -209 0
258 51 0
-352 438 0
-303 40 0
-594 440 0
222 -215 0
482 -521 0
534 397 0
-581 -157 0
407 51 0
530 -97 0
-486 564 353 0
-130 -14 -591 0
-94 433 0
-297 334 42 0
249 527 0
179 0
491 -328 -138 0
-87 -110 -92 0
142 -45 0
-144 600 0
-340 0
-290 234 0
-556 534 0
-40 96 0
-310 0
-558 -157 0
484 0
-151 455 0
272 -20 0
-387 -554 -35 0
-515 429 0
-334 568 0
-474 -572 -554 0
-310 268 0
348 -327 0
56 462 0
-185 197 0
64 -373 0
7 -229 119 0
545 -293 0
-398 7 0
-235 0
407 -320 0
-27 0
-363 -86 0
414 -123 513 0
600 340 0
-540 -337 0
27 -446 0
-287 0
177 -63 0
251 324 0
-475 104 0
159 -503 0
197 543 0
402 502 0
-479 -581 -536 0
-321 -116 0
-176 88 201 0
252 -68 584 0
-159 503 0
-240 370 -254 0
213 108 -260 0
35 -196 0
-294 -84 341 0
-585 -104 475 0
396 129 0
-100 351 0
183 -90 0
476 345 0
117 -308 0
352 -200 0
-55 2 -493 0
-178 -470 323 0
-282 160 0
230 76 -275 0
326 271 0
-475 456 0
-33 -285 0
152 -585 0
-195 588 0
-258 576 -51 0
-289 0
-345 406 0
-319 -189 0
-539 -390 -342 0
42 -255 0
-121 201 -486 0
-411 -132 0
403 107 0
324 -391 0
-158 260 0
-565 -74 -185 0
-172 -39 0
-360 -398 0
561 36 0
-194 0
542 300 0
-391 251 -296 0
557 -351 0
327 586 0
388 25 0
282 527 0
552 0
-410 -426 0
-573 400 0
521 -193 0
-565 492 297 0
-591 -494 0
477 138 -11 0
-582 457 603 0
220 -394 0
-355 -155 510 0
366 349 0
-39 123 0
-409 -597 -269 0
-437 258 0
112 400 0
-9 563 -75 0
203 -276 45 0
-278 514 0
217 209 0
-443 -391 0
483 252 0
562 -387 239 0
-253 29 0
-192 -224 0
-599 425 0
-73 89 0
-48 -17 65 0
-331 -289 0
-601 -43 0
-120 -43 587 0
-545 -158 -361 0
192 373 -106 0
49 -577 0
327 499 -348 0
-428 -166 0
52 -229 0
-343 -479 0
-419 -506 567 0
359 -75 0
-233 -200 170 0
236 -538 0
438 -176 0
382 -216 0
321 -34 0
166 -595 0
383 445 0
-12 -599 476 0
238 -581 0
-283 7 0
489 425 0
265 -583 -555 0
-471 -368 -292 0
-58 -588 195 0
507 434 53 0
-253 -551 0
30 -236 0
-226 -364 0
332 393 0
569 177 25 0
568 461 0
-447 -422 0
85 164 608 0
372 210 0
-590 604 0
-414 -513 0
-173 -432 0
-176 -458 -372 0
-366 112 -25 0
306 603 142 0
66 465 0
83 436 512 0
470 22 0
-524 -332 147 0
-578 -186 -444 0
-606 280 0
-273 -598 0
250 553 0
608 478 0
-448 -226 0
-544 -336 0
521 -482 0
-317 -586 0
379 240 0
-521 -70 193 0
489 0
441 -121 -420 0
-500 127 0
-364 -107 0
-438 176 -201 0
-80 -530 -548 0
195 -395 0
-462 -312 -8 0
221 -153 0
403 -322 0
-384 -114 -518 0
-490 8 0
-252 68 0
219 -502 -107 0
-495 -166 595 0
244 476 0
-270 541 0
367 423 0
-375 -394 164 0
-554 488 0
549 381 0
-88 -200 0
-297 263 0
-477 44 0
-251 -313 -424 0
-558 -606 0
-386 -77 0
-202 280 0
-5 450 0
368 292 0
-528 18 -356 0
-559 -330 0
-391 524 246 0
82 187 -49 0
-445 -454 0
-155 405 249 0
409 269 0
-119 229 0
-252 -584 0
387 554 0
-249 -405 146 0
-253 575 0
112 -206 385 0
-13 -607 0
-101 401 0
-260 158 0
-607 -239 -318 0
180 96 337 0
346 -93 0
-505 -408 -423 0
306 -385 0
-513 123 0
-28 -34 0
512 -353 0
113 -592 0
-557 -350 0
433 -451 0
-283 92 0
248 0
-102 427 0
468 78 -267 0
264 -440 0
-31 374 0
363 86 0
-367 -423 0
444 0
216 0
563 -187 496 0
563 359 0
17 285 0
389 367 221 0
188 0
-349 -396 0
-26 -557 0
-323 178 0
-371 -529 0
-143 -419 0
-326 416 -271 0
-586 -499 -327 0
38 -118 0
466 399 -282 0
-273 -87 0
-378 -358 0
426 -135 0
101 -594 0
-291 -54 149 0
431 -70 0
-105 109 0
205 499 0
494 -335 0
392 584 0
345 -406 0
-592 -390 0
114 -84 0
-379 -240 0
369 -131 241 0
281 325 0
-304 -467 0
96 -515 0
103 7 0
-254 47 259 0
219 -228 0
-574 368 0
-587 212 0
154 97 0
160 466 0
-263 338 255 0
552 -427 0
-63 -527 0
-222 215 0
110 92 0
-50 122 0
-191 76 0
-535 -84 -577 0
134 -54 148 0
565 -492 0
-456 -378 133 0
-78 590 0
-590 -487 78 0
-12 139 0
-333 -466 -244 0
-5 0
-552 -458 427 0
225 -377 0
483 -140 0
-493 -601 0
-294 -157 0
-202 135 0
177 46 0
363 -474 0
523 29 -313 0
-354 -513 0
-529 531 0
318 -167 0
-255 -338 0
539 413 159 0
167 -318 0
329 -369 -241 0
-262 403 0
-419 -550 0
216 -301 -382 0
594 -440 -226 0
437 -411 0
251 313 0
436 -564 0
293 -545 83 0
-297 565 0
121 420 0
16 -490 0
104 585 0
572 474 0
378 358 0
200 233 0
-607 498 0
251 -469 424 0
-61 0
-239 498 0
590 -454 0
-568 504 334 0
-357 0
348 371 0
52 -562 0
-271 450 0
-307 -503 0
220 -166 0
-542 248 0
206 -112 169 0
-272 20 0
582 -156 -603 0
-304 -575 0
227 -417 -141 0
511 0
527 63 0
-172 66 0
215 61 606 0
-198 -347 37 0
511 -207 0
-187 -82 0
354 -98 145 0
339 161 0
-504 568 0
-225 -380 58 0
-539 -592 0
324 463 0
-90 0
497 111 0
184 379 459 0
-603 -457 0
-171 -90 0
453 -442 0
582 -457 0
204 -79 -309 0
87 57 0
-64 -529 0
412 388 0
-164 -608 0
113 -342 484 0
-170 -435 200 0
-143 -596 0
295 594 0
-513 -162 111 0
572 -310 0
491 528 0
-535 -149 0
-495 124 0
393 3 0
-416 271 0
258 -76 0
593 -163 0
451 -373 0
170 435 0
-153 75 0
49 504 0
581 157 294 0
-171 -338 0
-337 -96 0
9 -59 0
-499 348 0
51 -576 0
577 -291 84 0
93 -540 -346 0
430 -125 0
523 469 0
569 -415 0
542 -117 -248 0
-128 571 0
372 176 102 0
528 -138 0
312 231 0
-14 -494 0
457 175 0
-208 74 0
10 -2 452 0
332 -71 524 0
-177 -25 -388 0
508 547 302 0
-428 -495 0
102 -427 0
-515 -361 0
-336 376 0
-212 -429 587 0
-570 193 0
245 -250 -553 0
-452 -330 207 0
55 43 0
344 448 -264 0
471 50 0
298 589 0
320 0
-80 154 582 0
-496 -109 0
-214 -136 0
477 -44 595 0
-126 0
288 277 -424 0
-309 543 -185 0
-454 211 0
294 -341 0
455 -237 0
-442 103 0
150 504 0
56 479 343 0
334 263 0
313 -29 0
515 40 -96 0
524 -443 0
447 -125 0
241 -147 0
-242 -243 0
24 -474 -369 0
31 485 -518 0
-257 357 329 0
474 -24 0
-596 0
-279 -116 0
96 -93 0
390 69 0
191 -576 0
242 243 0
355 146 0
-140 392 0
-413 480 -539 0
-526 201 0
-85 43 601 0
428 44 0
190 410 -497 0
214 136 0
376 -141 0
244 466 0
152 561 0
155 -249 0
-250 -62 -492 0
383 505 0
199 487 0
-472 141 0
68 360 0
548 0
-243 31 0
-322 364 107 0
549 0
336 -376 544 0
-97 -582 -154 0
-525 30 0
-377 -543 245 0
326 -416 -256 0
75 -359 -563 0
-51 -451 -407 0
-517 135 0
-76 -230 0
-112 25 -400 0
316 -182 0
321 116 0
311 133 408 0
-2 493 0
-346 0
-385 206 0
398 360 0
502 -219 0
-238 581 479 0
-476 -139 12 0
-10 -452 0
349 573 0
95 0
-229 -562 532 0
-61 -215 0
297 208 0
297 -42 0
-530 97 0
149 535 0
548 530 0
-1 414 0
602 72 0
-204 0
-127 -178 188 0
84 -341 0
-170 -501 0
470 299 0
-234 31 0
487 541 0
386 77 0
-218 -70 0
121 486 0
508 0
-24 -266 0
-587 120 0
48 33 0
-85 -164 0
151 -455 237 0
-438 352 0
106 374 0
306 276 0
-30 332 236 0
-575 -278 0
-296 -41 0
310 -268 -572 0
-485 -287 0
-220 409 0
114 518 0
249 -46 282 0
386 12 0
-467 0
-465 168 -66 0
-8 -331 0
9 75 0
453 119 0
539 342 0
-402 -502 0
540 346 0
151 144 0
-470 500 0
323 -472 0
36 557 0
520 591 0
-406 333 466 0
-321 28 34 0
-180 -209 0
-452 2 -382 0
-384 -341 0
-281 0
-78 267 0
-312 236 -231 0
-340 -600 -455 0
205 -259 0
165 0
280 -558 222 0
294 449 0
140 0
326 -422 0
393 236 0
207 519 -511 0
-307 0
-247 206 0
-491 -528 138 0
581 536 0
413 516 0
-236 231 0
-221 -367 0
-303 361 0
488 -474 0
327 270 0
-183 124 0
-365 261 605 0
574 266 0
-489 -139 -425 0
-132 -330 546 0
110 87 0
-73 -95 0
106 -192 0
-285 -17 0
499 586 0
469 -251 0
226 364 -262 0
296 391 0
256 -326 0
137 -6 0
435 27 0
514 129 0
-273 -322 0
543 -380 -245 0
-497 -135 -111 0
