c MORPH-SAT SAT unlabeled AND/OR/NOT tissue, 192 organs
p cnf 1824 4416
649 -478 0
1155 -522 0
-550 292 0
-94 1599 0
-375 0
330 -1530 1410 0
924 -462 0
602 -569 0
-1809 -857 1205 0
381 -1656 0
-160 868 0
-1743 -39 0
149 0
-296 1107 0
1809 -707 1114 0
-1010 227 0
259 1057 0
1158 -682 0
861 -1269 0
1089 42 1606 0
-1327 0
-1409 -869 0
-253 -1276 0
-1742 -1133 0
-269 -1061 301 0
-634 900 0
-1693 -336 0
-956 -988 0
-219 -1808 0
660 -226 0
-225 1285 0
-928 -1317 0
-1260 634 -718 0
586 -427 385 0
-564 -1233 0
-819 352 0
-505 -261 -307 0
-283 1342 0
998 -68 0
789 466 0
116 271 0
1359 -35 0
-1633 -362 0
-1311 -1520 0
332 702 0
423 -945 0
-877 1555 0
540 -1817 0
499 -1379 0
-847 247 0
-1723 1109 0
1557 1496 477 0
1254 678 1282 0
1525 -1622 0
1752 358 0
91 -859 0
731 -677 0
-1324 -1456 0
1687 -1493 0
226 340 -660 0
-45 1757 0
466 -740 0
-384 -913 0
194 1795 0
1741 1787 0
469 -1427 1796 0
1253 -795 0
-800 392 0
1302 1300 0
-1576 343 0
247 -1497 0
299 -1134 0
-1310 533 0
219 368 0
1086 863 0
-1738 1277 35 0
56 967 0
1183 -797 0
-1167 695 0
1368 987 0
1326 1807 -474 0
1537 -406 263 0
1793 1391 0
-1480 -833 0
-392 1750 -677 0
-709 -696 0
1415 1611 300 0
-1182 1585 0
862 -66 0
-270 1603 3 0
1702 362 0
-1092 1248 1104 0
491 543 -1523 0
77 809 0
1589 -1207 -275 0
-154 0
-71 1399 0
-87 -680 0
-1784 1234 0
1498 449 0
-1076 -164 0
1582 -1781 0
-637 1732 1711 0
-994 -723 -1675 0
418 -1395 0
150 168 0
-154 449 0
-230 -1564 -1460 0
1566 1436 0
-747 15 -1295 0
-814 798 0
564 245 1233 0
1395 1031 1176 0
1758 1182 0
-925 1160 0
-65 1611 573 0
635 1330 -499 0
-226 -848 0
1580 -812 1256 0
-357 -81 0
1110 653 0
528 216 0
294 -940 0
1059 -1562 0
-1261 -1071 0
-726 -1739 0
1328 767 0
-303 375 0
1446 655 0
-19 -1350 0
-74 -858 0
-632 918 0
922 -1077 0
692 -423 0
-279 525 490 0
-1087 -1527 0
72 22 0
-1043 619 0
-1475 -1651 0
1745 1487 -544 0
231 498 0
-67 0
145 -911 1014 0
-1740 33 0
-583 638 0
1571 235 0
-337 1559 0
-662 1649 0
-887 -942 0
-1506 1140 385 0
-780 -1480 0
1124 -1389 0
-826 -889 1759 0
134 834 0
468 527 0
1531 443 0
-169 -1523 0
922 382 0
-202 1439 -123 0
1406 -1458 0
1417 1027 0
-940 -129 0
1656 -381 210 0
-54 744 0
-455 -1358 0
-225 652 0
1126 -752 -1221 0
-749 -904 1423 0
-808 -847 -860 0
-1419 -428 0
-938 694 0
-1722 1654 0
-1214 693 0
910 -1280 0
889 1142 -1759 0
-1149 -915 0
-1415 -300 0
1801 -687 -45 0
-1579 972 842 0
-1236 1429 0
-1353 -579 0
-2 1238 0
1786 0
42 1629 -64 0
1112 1550 0
1648 1396 0
-1191 -401 0
-980 0
-1733 917 0
454 75 0
-851 1347 1130 0
900 324 0
-350 -362 0
-1684 950 0
1331 -490 0
269 -301 0
-240 -1270 0
401 0
-432 -984 0
393 1314 0
-1294 1196 615 0
854 280 0
-239 1818 -71 0
304 0
-287 -149 912 0
1516 1478 0
-1500 1615 1094 0
521 0
1210 -875 1032 0
-1775 -27 0
1806 -1039 0
835 -990 0
1560 -663 0
1080 1159 -636 0
-444 -1494 0
509 -138 0
1641 0
1131 -1612 1059 0
789 930 0
-651 -980 0
-850 313 -934 0
1028 704 0
-915 -1182 -1538 0
1161 1310 -533 0
50 -416 0
1055 0
1616 -645 0
-877 1712 0
-528 1676 1730 0
-885 974 0
393 843 0
862 1213 0
94 -1599 0
-1265 333 0
226 848 0
193 -196 0
945 1663 0
-1479 923 0
180 -1416 0
200 302 0
-592 -333 0
233 361 0
-1090 884 0
-1291 -1075 969 0
-1417 -1027 0
146 1592 0
1815 -1678 0
870 783 -991 0
430 -1303 0
-1132 -1667 0
-822 -867 0
500 202 0
-650 -1588 -1322 0
-750 1817 0
1062 0
1406 -1729 0
565 -559 0
1470 -1516 -1478 0
-1680 -978 0
238 -698 0
-1730 986 -1676 0
538 -1221 0
861 -9 -798 0
1007 -90 0
-1781 360 0
513 657 0
994 -953 -1792 0
1445 -606 -758 0
1615 1652 0
-815 1399 0
-1319 215 0
1069 998 -502 0
976 1624 0
283 -1594 0
-319 -1506 -264 0
-353 787 0
-731 677 -1750 0
708 199 -784 0
-1186 1413 0
621 1584 0
931 1824 0
1820 -576 0
-705 -493 0
-1598 1218 0
607 -1754 0
955 987 0
79 -1258 0
-228 -1514 0
-564 1734 0
317 -529 0
1309 -139 0
1704 -228 0
991 -243 881 0
833 1480 0
-876 -1392 -1082 0
375 1341 0
1322 650 0
-736 -440 -67 0
-1798 0
53 -1206 0
1699 -1148 0
1749 -488 0
-636 -1298 0
-1230 1084 0
690 1702 0
636 1298 -1080 0
338 -482 -1217 0
1010 -10 -808 0
-1270 669 0
563 -1352 0
627 551 0
-1611 65 0
466 -1166 0
-957 -74 0
-553 1338 -1243 0
-971 0
-1071 1653 0
756 -1136 0
-1769 -195 341 0
-661 349 0
-554 302 0
-1106 655 0
1458 1698 -80 0
-649 142 -1002 0
-1282 -1332 -678 0
-1600 -560 0
-337 -1658 0
1180 1561 956 0
1361 876 0
-1635 452 0
1117 -1733 0
-1681 -899 0
1464 -1093 0
1284 1596 0
627 1493 0
67 440 0
-1822 1625 -1226 0
-1409 -1537 0
-813 403 -1206 0
1011 -479 0
1404 382 -1077 0
1212 -811 0
228 771 0
1195 1224 0
1564 230 0
1444 495 594 0
909 787 0
-153 0
61 -1390 0
1647 -681 0
-1706 0
-343 -1049 387 0
-1314 0
-536 -660 0
-59 -40 0
-1550 -1112 -1083 0
598 0
720 1088 0
21 -1737 0
1337 1420 0
-448 -115 0
-121 -529 0
-1306 -620 0
12 1067 0
151 978 0
8 -1 156 0
-754 -504 0
1425 -712 0
1651 1444 0
-532 -1528 0
-1420 -379 675 0
-42 -1629 0
249 40 59 0
62 0
-107 -960 0
315 -218 857 0
-1282 -1254 0
-1163 -903 0
-139 781 0
1354 -1450 0
1724 1097 0
1756 625 0
733 1604 0
-1167 1708 0
-1201 -335 0
-349 0
1799 -1690 0
1731 1156 0
365 296 1728 0
762 -1534 843 0
1268 0
-32 1657 1400 0
1388 1436 -998 0
-1097 -1724 1102 0
-1119 292 0
24 886 0
-1290 -1572 0
-1230 1458 0
533 -1600 0
1460 1564 -654 0
-1151 532 0
281 -80 1735 0
1340 1442 0
-846 904 0
588 -299 0
710 819 0
1047 540 0
-1190 -1546 0
1556 317 4 0
-1054 157 -347 0
-1740 933 0
-360 -1675 0
165 -745 1469 0
14 -1510 0
1445 -1280 1451 0
-61 -412 0
-345 451 0
1345 727 0
172 -973 0
1703 22 1310 0
1774 801 0
-214 -1368 -1512 0
142 -1751 0
-1739 1025 0
411 -391 0
-302 -659 0
1465 -830 -813 0
-987 -955 0
-1816 1626 0
-1169 -1719 -20 0
866 217 0
-769 -38 0
-1791 1790 177 0
-838 206 0
1778 -1472 -184 0
-1423 749 906 0
389 -1574 0
-412 1481 1247 0
1627 1653 0
-679 701 0
-1400 -728 0
-1460 654 0
-760 1620 0
1301 355 0
-719 -106 0
1181 0
-295 -899 0
-1091 1190 382 0
-744 -1499 0
384 -369 0
1282 -408 0
254 -984 0
-1296 39 0
1202 560 363 0
-1694 -778 0
1328 267 0
1205 1008 0
1460 1088 0
1187 -989 0
-1564 493 705 0
228 -1704 1606 0
-1168 598 0
-800 0
-1436 -1388 0
-158 1584 0
1767 354 0
1473 0
1145 465 0
1259 122 0
-866 -1008 -217 0
-674 110 0
790 1100 0
-1115 429 -545 0
-212 -1028 0
-1500 -221 0
-1399 815 -47 0
-1370 0
-347 -178 0
-154 -232 0
-1031 -1395 0
832 1352 -563 0
842 -1056 0
-842 1579 1056 0
-44 38 0
-215 515 0
448 760 -1738 0
-1452 -534 0
-1083 -345 0
1761 0
-1038 -868 160 0
855 1307 0
690 1804 0
1384 543 0
1437 -1316 0
1323 1059 0
-84 1571 0
-1263 -202 0
-1157 -781 139 0
-1024 -98 0
-976 -1754 0
-692 1181 -1663 0
1026 574 0
1438 -748 0
177 -1766 0
-761 -363 503 0
-1380 1748 0
357 81 0
-406 -973 0
-1136 -578 0
355 -1558 0
241 -604 1708 0
1496 0
-211 915 0
487 108 0
-1596 -1066 -1284 0
-235 -620 0
460 -569 1814 0
422 -27 0
-242 -781 -971 0
-591 307 0
-373 327 0
-1130 273 0
765 -403 0
-699 437 0
983 840 0
-1649 114 0
-1768 -1726 -905 0
866 1008 0
-1150 -1605 0
-484 -1409 0
-955 -1790 0
-886 -24 1670 0
261 -858 491 0
-969 1291 0
-903 1174 0
-96 -207 0
-755 270 0
-558 -420 -1116 0
614 1588 0
930 855 0
399 -902 878 0
-180 1416 0
1145 452 0
844 0
115 -1107 0
601 772 0
896 20 -591 0
-226 -340 0
-748 -1795 0
-336 1093 -683 0
-542 -1494 0
314 -1813 0
-1303 32 0
1459 1289 1713 0
1618 1747 0
-1779 93 0
1568 -310 0
-635 623 0
-171 35 0
-672 -1274 0
700 -549 0
-1145 234 0
-987 703 -1368 0
-201 1812 0
-985 -1012 0
236 -1327 0
123 -1439 0
1414 1490 0
-917 1733 0
-1741 -1787 14 0
1695 388 0
474 -1326 0
1135 409 0
1306 1166 -170 0
249 1683 0
-920 1476 596 0
-1801 45 0
-871 -422 0
817 1418 0
1720 -1231 0
664 208 0
1436 -785 0
-963 -1219 0
976 -887 0
735 -1466 162 0
1282 1332 0
1203 802 -827 0
-1413 1186 0
600 -383 0
364 -1125 0
597 605 -73 0
981 1587 0
548 -1434 0
-1235 1364 0
-851 700 -1288 0
-706 555 0
1269 1175 0
-1679 -239 712 0
-982 0
-691 1581 1183 0
-1415 319 0
-276 -1123 -173 0
-280 1462 0
-1038 -766 0
-1727 -1559 337 0
-1320 -1691 0
757 1522 0
134 -1822 0
-1667 -120 0
-883 -1129 0
-579 -805 0
1738 -448 0
715 -1473 -1529 0
229 829 0
-1747 1325 0
-312 1678 0
1131 893 0
-1468 -1271 1360 0
-1776 422 0
-1062 -1510 0
-189 327 0
-489 1299 0
-1432 -1114 -1809 0
-1240 1557 0
-1497 -860 -1148 0
1472 -1029 0
-229 770 0
-467 -272 0
-667 1015 0
-1615 -1094 0
-817 83 0
-920 -1210 0
124 1411 0
1767 412 0
-246 0
-447 0
1578 -1249 0
-1113 -1193 0
1199 -1373 0
-1725 0
1636 1770 0
-1406 700 1458 0
-20 -896 0
869 -31 0
-898 -1203 827 0
1245 -985 0
-1244 1434 0
25 426 0
857 701 0
288 -182 0
339 -1276 0
-1796 -1119 -469 0
-1011 1297 0
894 -1481 0
-1669 1749 0
-1205 1809 0
-597 -1078 -605 0
303 -1341 -375 0
1517 0
625 1095 0
-763 537 0
-1671 -1274 0
1216 -115 0
925 -1160 -1374 0
404 756 849 0
-750 -1745 0
1201 -163 0
1260 0
-735 516 -162 0
-523 -1725 0
1083 345 0
-1824 -911 0
-411 -726 0
-1626 -1791 690 0
-828 -997 0
-1693 -1578 0
197 943 0
-1108 -377 0
-1513 -1382 -746 0
10 -1010 0
-435 -951 0
-370 -743 0
-1067 -1695 -388 0
994 1165 0
-583 1771 0
-665 -611 1524 0
-529 4 0
-1286 -1411 -124 0
-615 -1196 0
1804 -1791 0
-202 420 0
-56 958 0
1778 557 -653 0
-411 1652 0
1677 1806 0
-1396 823 0
-1032 0
-1514 5 0
-874 -183 0
1743 944 309 0
-1780 1590 0
1050 468 0
1326 19 0
1401 1155 0
1643 -1105 0
773 -1051 0
-663 1139 0
-318 1618 0
-1263 -123 0
223 1358 0
-1783 -876 0
753 -1412 574 0
82 -358 0
1153 1565 0
189 -327 0
-1360 1271 0
-675 379 -1554 0
1142 -622 0
1730 -986 0
-355 -1301 0
-1155 -908 0
-932 829 0
166 -364 0
1766 -177 0
854 0
54 -1004 0
707 -1645 0
804 -223 0
-563 224 0
-262 -239 0
826 -1759 0
-1650 -86 0
-989 -1502 0
1177 1603 0
-602 -410 0
-76 -513 0
-413 912 -850 0
1502 989 0
-540 -1047 1817 0
919 1421 0
734 -102 0
1394 197 0
-1031 -1176 0
-866 -1447 0
-587 246 0
-571 -1091 0
-857 218 0
-23 1695 1067 0
-1064 1216 0
-4 -1184 0
-1697 271 0
-949 -643 1676 0
993 739 95 0
139 -1548 0
412 -1481 -1106 0
-646 1035 0
290 -1687 939 0
1369 1228 0
-111 -492 0
-1492 -80 0
1764 -809 0
128 -473 -1053 0
-1512 -825 -1397 0
-1813 -1759 0
1053 473 0
-1405 -1404 0
-722 -1794 0
144 -93 0
-1499 16 0
605 1078 0
962 -1672 0
-403 1206 0
181 -394 0
-531 -369 0
-486 259 0
-1716 1285 0
1402 0
-727 274 0
143 0
-1453 409 0
935 0
-279 575 0
636 -1159 0
-1477 -459 0
-1589 1474 0
767 -370 636 0
1141 1254 1668 0
-412 1106 0
-1104 -1561 0
325 -1094 1500 0
-86 597 0
785 -1693 0
-1344 -1724 0
1174 1219 963 0
-918 -1275 0
780 -633 0
-1423 904 0
144 -1768 0
-910 1280 -1451 0
-932 828 -1309 0
32 -1657 0
1164 234 0
-1012 -1760 0
-1590 1780 0
1120 -1442 0
1180 0
730 1633 0
-1461 1127 0
1103 -91 0
-539 525 0
-329 999 0
-1794 482 1450 0
-1217 -668 0
699 514 -437 0
-1633 -1423 0
-221 762 0
1320 1691 1009 0
-1062 1222 0
-853 -1299 0
676 -46 0
1686 991 0
745 463 0
-489 1716 0
-832 563 1256 0
1468 174 -1360 0
-666 -433 0
-394 -930 1370 0
1726 -1523 0
926 1379 0
944 1661 1163 0
17 -1294 0
379 317 -105 0
1069 -68 0
482 -338 0
-1232 -1213 0
1334 -1467 0
508 57 0
-1724 -487 632 0
287 149 0
-32 768 0
-1184 131 0
426 -567 0
699 -1202 0
-387 343 0
1283 1722 0
878 1001 0
-1375 1804 0
542 -297 0
1571 223 0
1739 0
-857 -701 -315 0
-852 509 -1417 0
-1024 -467 0
315 701 0
1278 0
-1273 901 0
534 1753 786 0
1359 1680 0
895 -1239 -657 0
-265 1335 0
1386 1794 0
764 -60 0
1221 -1126 0
-1769 1765 0
-845 1418 0
-1247 -1481 0
-479 -1257 0
432 1162 0
-1470 -946 0
1553 29 0
1607 335 592 0
552 -1505 0
864 50 0
-1362 -1272 0
48 1245 0
851 -700 0
-139 1157 1548 0
1576 -303 0
789 -740 1302 0
-96 0
74 -1762 957 0
876 1082 0
-430 -697 0
-378 1755 0
-136 -198 704 0
105 -615 0
-276 -1476 -1058 0
-1688 842 0
898 1203 0
-896 591 0
-568 0
115 1728 -1793 0
-596 -1476 0
434 919 -1697 0
-780 480 -227 0
405 520 0
921 629 0
-931 -1603 1334 0
-1098 -1682 0
-1134 210 0
439 1030 0
-273 213 1130 0
1614 -1704 914 0
218 -315 0
-814 -480 0
942 -1482 1191 0
-1128 -1313 642 0
-1407 566 0
-867 -266 0
1748 -135 0
-582 1135 -575 0
-272 -545 0
1217 776 482 0
1582 0
571 -382 1091 0
-627 -1493 -551 0
1106 -655 0
737 0
1368 1512 0
1817 -1619 0
1094 -325 0
-1357 512 0
910 -758 0
633 -1241 1066 0
-233 -925 0
126 1013 0
-339 1276 253 0
1170 0
-1629 129 0
-302 554 -1101 0
-1370 394 0
-1411 0
-214 1217 668 0
314 1542 0
428 741 0
-1665 1331 539 0
-573 -155 0
849 1631 0
33 -1206 547 0
1789 1153 0
-1357 -114 1649 0
-1277 -35 0
428 -453 1419 0
-1458 80 1230 0
-508 -57 0
1505 -552 559 0
558 1116 0
-1087 -253 0
-497 -1143 0
741 101 0
-1169 -1042 0
-291 1457 0
472 -1403 1685 0
-1142 1759 0
1351 1604 -257 0
-897 -1819 0
-992 1734 0
-1778 -557 0
-638 -459 0
-478 1751 1003 0
-1317 -407 0
1218 130 0
1117 515 0
1644 277 0
-895 328 1265 0
897 -1442 156 0
981 1421 0
-685 -1520 -18 0
-1366 1169 0
-407 -376 0
-1128 530 -1428 0
-1231 -834 0
-839 -734 102 0
542 -1179 -445 0
1095 328 -592 0
-594 -1444 0
157 -244 0
-459 1443 0
-1218 1598 0
1447 89 0
249 -1808 0
1043 -1349 -1811 0
1152 659 0
-1318 0
-203 1101 -1479 0
-335 -1607 0
-975 972 0
-1615 1500 0
-70 -1282 0
-351 -844 0
-1425 983 0
-1315 0
445 823 0
46 -439 0
759 -191 0
-1627 1246 0
-188 286 0
1637 -1326 0
-916 -140 0
753 1026 0
-792 1760 0
1686 497 0
494 -252 0
687 -1801 0
853 1299 0
747 -15 0
1452 721 -186 0
639 212 1079 0
-1316 0
-423 945 443 0
-98 0
-547 -714 0
1634 -288 0
-748 -759 0
914 1486 0
130 1235 -1364 0
-1709 -892 0
109 -1407 0
-1236 340 0
777 -759 191 0
784 -708 0
728 1555 1400 0
1340 1625 0
1451 607 -1624 0
-85 -1599 0
-80 -1230 0
-1331 490 0
1098 -1724 0
-1805 -1356 0
-1349 1212 0
-1774 -801 0
-769 1722 0
-1563 62 -1715 0
923 834 0
1672 1415 0
-1531 -113 0
1523 144 0
-116 -271 0
-156 -8 0
879 -776 0
-1672 -1415 -1611 0
-166 364 0
422 871 -1775 0
1258 814 480 0
1378 -1085 0
1511 0
-896 -505 0
-1463 0
-816 417 0
1291 -1020 0
-632 1344 1724 0
-1043 -1212 1349 0
736 67 0
-572 -157 0
1400 1799 0
320 493 -175 0
-334 -932 0
-1577 -82 358 0
1684 900 -950 0
-1569 0
-634 -950 0
1128 1428 0
-179 1597 0
-1142 -889 0
-1199 1373 508 0
795 -1253 0
132 1489 0
-165 -1070 745 0
-167 1625 -1061 0
-670 -1284 0
-1734 1076 564 0
1007 -232 0
1820 783 0
719 106 0
1187 966 0
-1771 -282 0
1291 1075 0
-72 -22 0
-1622 944 0
-1605 -1430 1274 0
238 1719 0
-726 316 0
-853 -281 0
479 126 0
76 0
1536 666 -1435 0
-1469 856 0
-470 0
161 -119 0
-749 1484 0
-1029 653 -557 0
-1338 1243 0
-412 -1767 -354 0
906 298 -846 0
716 -1399 71 0
813 1206 0
706 272 545 0
1094 1283 0
-919 -185 0
185 1587 0
49 -965 0
40 -501 0
304 -1735 0
-1530 -86 0
890 0
97 -729 1259 0
-753 1412 0
1306 189 0
-407 473 0
1034 -1344 0
-24 1648 0
-276 1253 0
192 0
-1674 299 1656 0
1748 793 0
673 565 0
-1234 175 0
416 344 -50 0
697 -927 0
82 1172 0
1752 -1577 0
-1053 397 0
265 0
11 0
1269 -778 -861 0
1640 -1463 0
1565 542 0
58 99 0
-910 758 0
596 875 0
-250 -1608 0
1423 1633 362 0
-52 10 0
1005 725 0
-146 1255 0
-262 -71 0
815 -697 0
-1536 -425 0
-671 -110 0
1018 16 0
1161 -818 0
-321 -127 0
-301 49 0
-68 788 0
1238 1483 0
1721 -457 -807 0
740 1568 0
-509 852 138 0
1462 786 0
-40 1124 0
-302 -200 -949 0
-469 332 0
1079 0
-369 658 0
1385 1280 -352 0
100 1478 -1043 0
1019 1347 0
-904 846 0
269 -198 0
1708 277 316 0
1567 1669 0
1043 -619 -1478 0
-373 0
1582 723 0
-1351 257 0
1810 -831 0
-601 -772 0
1037 -114 0
-366 -1227 0
214 -668 0
-13 -334 0
322 -195 0
66 -862 0
322 775 0
1195 -553 0
1086 377 1108 0
1447 1647 866 0
-525 -490 0
-1764 -1137 0
-741 -101 0
-1334 931 0
-1335 738 265 0
-1146 -827 0
924 -1320 0
-1196 1294 0
-310 -590 0
234 421 0
-1284 1643 0
407 -250 0
-428 -741 453 0
-1367 -453 0
-397 -376 0
1477 1771 0
1334 346 0
-783 991 -1820 0
-882 -1503 0
1274 -1200 0
1186 1514 -1482 0
569 -460 0
-314 1159 -1542 0
1632 572 0
-1668 1563 0
-15 1295 0
-1570 93 0
-373 170 0
1317 -1608 928 0
-1037 114 0
-1269 778 0
-1249 489 0
180 -117 616 0
28 1007 1498 0
1321 465 0
-484 587 -246 0
-1763 1313 0
-1568 1727 0
-578 0
-103 70 -231 0
-968 -1257 0
1758 -1695 0
-419 278 0
-29 -1553 0
-515 215 -1308 0
-436 1654 0
749 -719 0
839 1150 0
1758 1189 0
91 -1312 -1103 0
-1350 1363 0
-252 -681 0
-1540 1798 0
-669 1270 641 0
-1581 -1183 0
113 1531 0
1013 -1573 -456 0
-541 -721 0
356 100 0
-1388 -236 0
-443 -1663 -945 0
-827 453 1367 0
-317 529 -4 0
-984 1221 0
953 -994 0
318 -1618 0
-1219 320 -1784 0
-1705 -1050 -468 0
1621 -689 0
-589 -884 0
-1419 1533 0
239 -712 0
-176 -640 0
-596 -875 0
1147 1354 0
-686 958 -1744 0
-1166 170 0
1703 0
1805 1041 0
336 683 0
907 -1744 0
461 -1505 0
-1231 1822 0
-1103 717 0
-1797 47 -667 0
-317 -1556 0
579 805 0
-390 -1485 0
83 -923 329 0
-876 810 0
958 -324 1730 0
1206 -547 0
1372 821 0
-1170 69 0
430 697 -815 0
1221 -538 -432 0
665 611 0
-1579 585 0
-122 -1259 0
368 467 0
1736 1154 525 0
935 1204 0
432 538 0
-301 -136 1061 0
-1443 -583 0
1802 -855 -1307 0
758 606 0
381 0
-62 1563 0
1223 679 0
-365 -1728 0
1058 1607 0
1102 1098 0
-1173 -194 0
224 1597 0
-1300 -1302 0
-1311 -1322 0
824 -526 803 0
-464 0
-762 537 221 0
365 0
-489 1249 -1578 0
501 -40 1468 0
-1117 0
1111 0
-610 -1021 0
155 -456 479 0
1613 -1494 0
809 1153 -1764 0
-424 -798 814 0
-264 -1433 0
859 -929 -402 0
1178 570 0
1723 -1109 -195 0
1665 1391 0
-799 -481 0
1058 276 0
-387 1049 0
-1699 1148 -687 0
1075 -1817 0
394 -181 0
1741 -14 0
181 -855 0
-1433 1577 0
-1795 1438 777 0
913 -1017 0
1603 931 0
-619 -11 -356 0
663 -1560 0
71 -1818 0
1227 366 0
-1129 1564 -493 0
666 433 -1394 0
1023 -822 0
36 -1552 0
36 -1699 0
-1177 1329 0
-680 -1780 0
413 -912 0
1070 -1109 0
-1632 751 644 0
1813 -314 1759 0
674 -110 964 0
1304 -1782 0
-1313 438 0
1116 -1610 0
-1633 -730 0
-1479 -594 0
506 1783 0
-289 1049 343 0
-1178 465 0
-238 -1719 698 0
-70 413 0
631 -76 0
1701 959 0
446 -34 0
-1167 316 0
266 -908 0
428 -555 0
-454 -75 0
1342 257 0
378 1378 0
611 0
1747 1373 -1325 0
1614 771 0
760 1064 0
-548 257 0
-1641 1646 0
256 -1448 0
1573 0
-281 -1249 0
-109 1407 -1680 0
523 544 -1745 0
-640 -1096 0
-884 1090 41 0
-429 545 0
1200 -1274 1605 0
-88 -480 -1258 0
1818 1437 0
-1377 1130 0
-274 444 0
832 305 0
-700 1288 0
-1477 -1771 583 0
-1749 -196 0
-977 764 0
1670 -190 0
-1346 -208 0
868 -1493 0
362 -90 0
621 -1488 0
1533 -1448 0
645 -1616 1747 0
-1800 0
186 -1452 0
-789 -1302 0
1755 675 0
942 -976 887 0
173 1123 0
-1385 352 0
-503 761 0
-52 1290 0
1059 -1551 0
-957 1762 0
1130 -1387 0
-410 1761 0
-16 1499 -1018 0
1723 -1721 0
-1131 -75 0
637 -1732 0
321 -968 1291 0
-581 1021 0
1749 196 0
-1525 618 0
811 -1692 0
-308 -1321 0
1296 -1610 0
889 826 0
-734 -1403 1239 0
285 568 0
-103 -408 0
1715 -62 0
507 -1046 0
1030 -458 0
175 -493 0
391 -411 316 0
-1763 443 0
-1805 -1041 -1558 0
-1787 -985 901 0
192 538 0
408 103 0
-1383 830 -1613 0
1002 259 0
1226 1822 0
1431 -1264 0
468 -863 1534 0
1048 677 0
-233 -361 0
-1385 -1215 1113 0
-1312 929 0
1261 1246 0
1102 1096 640 0
131 1127 0
-1547 -608 0
-515 1733 -1117 0
-1045 1813 -1601 0
-461 518 0
-360 -994 0
1444 1710 -753 0
-1329 3 852 0
-559 646 -1035 0
315 -1033 104 0
561 131 0
70 1282 -413 0
1539 1671 0
1081 -18 -310 0
-709 -1665 0
-1465 1361 0
165 600 0
1466 -642 0
336 1566 0
1347 158 -1736 0
-613 -561 0
-1765 1769 0
-1498 -1007 0
360 1675 994 0
-920 -1720 0
1360 122 0
702 454 0
-1555 -1799 -1400 0
1714 -1750 0
-1454 1714 0
-404 -756 0
-720 -1088 0
-315 -104 0
651 1252 0
1069 -250 0
-1134 -1674 0
-982 662 -1037 0
-3 -1603 0
-1276 1342 0
638 -968 -1297 0
-1038 -1637 1326 0
-417 135 816 0
-56 1730 0
1593 1486 0
1125 -822 0
1045 0
-263 406 0
-845 0
-787 -909 -1041 0
-1790 1791 31 0
1676 -986 0
-179 -796 0
1061 167 0
1004 -1585 -54 0
1537 -715 0
182 -1229 -288 0
-1305 -1048 1054 0
-1379 400 0
-267 -504 0
-1490 -1414 -1258 0
1193 1183 0
-997 1364 0
128 -943 0
1380 1700 0
-1802 -1575 0
1308 917 -215 0
199 604 0
357 -1374 0
-1345 -727 0
-351 -1821 0
-213 273 0
-1812 201 -977 0
765 -1465 830 0
-572 -384 0
-1327 995 0
-1800 -498 959 0
1821 -865 0
-254 984 0
1430 1605 0
761 -1642 363 0
779 -961 0
1776 26 0
1440 158 -1584 0
1224 -1243 130 0
-932 441 -1060 0
-165 -1469 0
54 1585 0
-311 0
636 -1717 0
-786 -1753 0
-600 383 1372 0
753 -1444 -1651 0
1461 0
-1423 -362 90 0
-33 1740 -933 0
919 584 0
-926 -386 0
-25 37 0
-1722 769 1250 0
-1082 -1675 -506 0
84 517 0
-933 1229 0
778 861 1694 0
-1545 -1363 0
-408 -413 0
162 1441 83 0
-1274 1430 0
-1620 644 760 0
-367 -1060 -26 0
612 -774 -1490 0
-780 -372 0
-93 1570 1779 0
1443 1366 -1169 0
-1201 163 -510 0
-981 -112 0
886 -1670 0
1073 -610 0
-188 395 0
593 268 0
-821 -1372 0
1747 43 0
233 460 925 0
-1728 1793 0
-1125 -1150 0
1290 1572 0
-1163 -1756 -790 0
-1487 1044 0
-91 859 0
-972 1579 0
-1384 -543 0
-1214 -1292 0
38 -763 0
1787 -648 985 0
-398 782 353 0
-187 890 -652 0
176 562 640 0
-359 586 0
-559 -1505 0
-399 902 0
1423 -906 0
-948 1305 0
-1104 -988 -660 0
746 1513 0
828 -125 0
570 -308 0
-1131 1612 0
-1306 170 0
-1437 262 1316 0
-313 -1613 0
505 896 0
504 267 -1449 0
-767 370 0
-706 -545 0
426 -816 -669 0
1312 -929 1103 0
-947 -702 0
-677 -1048 1449 0
1220 -285 -568 0
-847 757 0
-1400 -768 32 0
1792 941 274 0
825 1397 0
-1333 -832 -305 0
645 43 0
-1657 -1400 0
1407 1252 0
1414 1279 0
258 1543 0
256 -656 1021 0
-1298 -1542 0
-566 -211 0
-871 241 0
168 -1170 0
-1225 -1619 0
1369 1157 0
-320 1784 0
-806 902 0
1737 -940 0
275 -167 0
-658 -913 0
792 725 0
-285 -112 0
1102 837 0
546 -879 45 0
1427 -469 0
992 164 0
-493 -320 0
1606 771 0
954 1673 0
-1705 342 0
-549 1426 0
-1143 0
-891 -1137 0
-249 -59 0
-118 0
-159 -197 -1394 0
-722 -1147 0
-687 -1507 0
714 547 -1772 0
-97 -1259 0
-37 25 0
-1138 -1335 0
-2 1346 0
148 -1517 0
13 -139 0
-1441 -845 0
-630 -1466 642 0
-1519 -1194 0
1514 -5 228 0
-1507 1148 0
301 12 0
250 1608 0
908 -266 0
252 1188 0
-1015 667 1301 0
1226 209 0
-1159 -1080 0
-1131 -893 -617 0
1639 -1596 0
-590 1081 0
367 439 0
1655 1158 0
-237 -1362 0
-1631 -849 -404 0
-1716 489 51 0
-1103 929 0
-173 164 0
1719 1169 0
-360 1781 0
72 1161 0
1692 -1811 -811 0
1350 19 0
-249 990 0
-901 1273 0
1616 323 0
-1504 1296 1116 0
-808 -1572 0
33 -1092 933 0
-344 -416 0
-936 -705 0
1637 -1103 0
879 -519 0
-1705 -1343 0
-1146 -188 0
650 1588 0
-1424 850 413 0
510 1607 0
-406 -522 0
357 925 0
-471 -143 0
977 -1220 0
-1521 -581 0
-377 -1086 0
-1297 1011 0
-30 0
1592 245 0
-1192 -526 0
686 -958 0
1481 1106 0
617 1229 0
-85 1483 0
-1465 -810 876 0
38 551 769 0
1768 -144 0
1712 1337 -1554 0
97 1242 0
1499 744 0
1185 -707 1645 0
-418 -1528 0
1080 -1298 0
314 -1759 1501 0
1578 336 1693 0
-1697 584 0
-141 916 0
1292 1214 -693 0
-627 -290 0
155 126 0
-1416 -746 0
585 1085 0
-1046 -742 0
768 1400 0
1002 649 0
1811 1349 0
-1096 -1102 0
-918 632 1366 0
1791 1626 0
757 337 0
-1324 -899 -433 0
608 1547 1657 0
548 -1342 -257 0
-526 1369 0
1264 -620 0
-942 1482 -258 0
-1429 1236 0
258 942 0
-54 -1823 -1018 0
1606 -779 0
1516 -160 0
1510 1062 -1222 0
-1142 622 0
288 -1634 0
1164 -1057 0
-161 -270 0
1338 772 0
-1049 -1694 0
720 -299 1339 0
557 1029 0
1194 684 1519 0
-678 1323 0
1193 1113 0
-884 -462 1819 0
-1377 -1288 0
1449 -504 0
868 1038 0
-134 1822 -834 0
1819 -1320 897 0
1266 1489 0
-864 -1784 0
1293 -580 -678 0
-474 1350 -1363 0
816 -426 567 0
-488 -671 0
1396 -1149 0
-1359 -151 35 0
-793 -1748 0
-341 169 -1384 0
-954 -1353 0
-1655 -1158 0
305 -992 0
933 -617 -1229 0
186 0
-1743 -944 0
-646 889 0
911 -145 260 0
670 -340 1236 0
1528 -1591 0
774 -366 0
-1069 502 0
-400 386 -574 0
-749 719 -1213 0
-786 -1556 0
-941 -1402 0
1325 603 0
-1581 1111 0
1446 -1247 0
-7 1262 0
-1197 986 0
787 1041 0
1795 -777 0
1060 26 0
1765 775 0
-1340 -1625 1822 0
-604 -199 0
-59 -1122 0
-382 -1404 0
1696 -548 0
-1121 -238 1161 0
-1200 -1605 0
-820 -1689 0
88 1258 0
-983 -840 1425 0
-482 -1450 0
709 1665 1793 0
-1706 962 0
1667 1132 145 0
-116 -520 0
-1365 302 949 0
1675 723 0
-1500 -38 763 0
-446 34 0
-1673 -954 0
-1684 -900 0
-294 940 0
981 -1220 0
-1664 1483 0
341 1384 0
1228 780 372 0
1304 562 0
1503 882 -225 0
1375 0
147 -1695 1182 0
516 630 0
-48 -1039 0
-44 551 0
532 66 0
18 1520 0
1609 1223 0
713 -1692 -556 0
-1553 1448 293 0
-1655 -1705 0
-745 1070 0
-563 -1256 0
-1114 707 0
-1264 620 1306 0
1442 -897 -1120 0
79 -55 0
1592 564 0
376 407 -473 0
-1600 -1187 0
-713 1692 -1640 0
1693 -785 0
630 -642 0
-231 1701 0
893 617 0
-316 -1708 1167 0
1742 -584 1133 0
-1289 1320 0
1773 1227 0
-1085 1099 0
1548 242 0
-1093 371 336 0
579 1353 -1589 0
-1115 -1711 0
272 428 467 0
-223 -1358 92 0
-564 -1076 0
142 -887 0
132 1620 0
392 677 0
-1072 502 0
145 -260 0
-282 1519 0
1006 461 -518 0
476 696 0
65 1319 0
560 -989 0
-878 -1001 0
481 1271 0
-1086 -1108 -747 0
581 -1021 1814 0
716 1707 0
-1644 -695 1167 0
-791 898 0
550 -292 -1427 0
-434 1697 0
4 1184 213 0
-802 827 0
1523 -1726 -93 0
-609 -89 -872 0
-1670 -249 1808 0
1798 -1610 0
205 124 0
-1785 1050 0
-1359 1080 -1680 0
632 -1344 0
1484 -1213 0
-1692 1640 0
-637 -429 0
-87 -647 0
-1194 0
-172 729 0
-1783 -506 0
-603 -318 -1325 0
-1607 -1058 -795 0
1421 1823 0
-1253 276 1476 0
1515 1455 0
-1118 -595 -388 0
-939 0
-826 622 1777 0
-610 1814 0
1286 1132 0
-1752 -358 1577 0
149 -912 0
834 999 -1479 0
141 -55 97 0
-881 -991 -1686 0
-1026 -593 -268 0
-1659 734 -1239 0
1121 238 0
1435 -666 0
-112 -977 0
1806 -1773 0
-1381 0
1524 966 0
52 0
1115 772 0
-1034 108 0
-475 -803 0
442 241 0
1583 0
-419 -450 0
1757 -687 0
813 830 0
1680 -1407 -1252 0
-714 1772 0
521 -1681 0
-126 -1013 0
1224 684 -1771 0
1805 1356 1558 0
-1089 -1606 0
1165 432 0
-1609 -1108 -1223 0
1609 1108 0
-760 1266 -644 0
-1455 0
1680 109 0
-1109 -856 0
-332 469 -702 0
-689 -190 0
-770 441 229 0
1788 14 0
1405 1404 0
656 -1731 0
-639 1339 0
1729 -1406 1426 0
989 -560 -1187 0
1659 -734 0
-316 411 726 0
424 798 0
-141 55 0
282 -1519 0
1182 1538 0
-193 0
1678 1549 0
1466 -162 0
99 1306 0
305 614 0
-577 -1200 0
-211 -1396 0
798 -1485 -861 0
-1434 -783 0
9 798 0
-1104 -1248 0
-703 1790 0
-812 -1352 0
477 761 -1156 0
-344 -298 0
315 1454 0
559 -1006 0
993 111 -996 0
827 -1367 0
517 0
658 1030 0
-1452 216 0
864 1784 -298 0
1294 954 1353 0
821 -51 0
213 -613 0
-453 741 0
1690 1382 0
-480 227 0
1401 -867 0
1709 892 0
-1821 1660 865 0
982 1037 0
1508 0
1281 -746 0
828 -334 0
-1812 -92 -60 0
-560 -1202 0
1272 -1609 1362 0
-978 1080 0
-338 1217 0
1096 96 207 0
-1689 -1263 0
1718 -762 1534 0
869 -1766 0
-1664 1238 94 0
-1002 732 0
1406 -700 0
-598 1168 222 0
876 1783 1392 0
1451 910 0
-475 -1584 0
653 1361 0
219 467 1024 0
829 -1060 0
107 -754 960 0
976 -942 1535 0
-1757 1796 1336 0
-46 439 -458 0
-555 706 0
1709 1669 0
1112 0
1552 0
1672 1611 0
1248 -1740 0
694 47 0
730 1007 0
-1208 383 0
-293 0
1593 -1065 1381 0
1476 1058 0
-1331 1665 0
2 -664 -1238 0
682 -1629 0
897 924 0
-540 -1225 1595 0
806 201 -902 0
571 -1546 -849 0
1016 43 0
-1162 953 0
694 -667 0
-342 1705 468 0
1512 1397 0
-533 72 0
-1197 216 0
255 0
822 -1125 867 0
333 592 -1095 0
125 -979 0
926 386 0
1577 82 0
752 -1126 0
-1445 1280 0
-649 478 0
-1524 611 0
-1066 1241 0
-1592 -146 0
916 140 -1242 0
-580 1323 0
416 0
1145 -570 -1178 0
-595 23 0
1006 552 -559 0
-1639 1596 0
1003 0
-1571 -223 -235 0
882 652 0
-551 -769 0
1179 -1789 0
1329 -852 0
-133 1630 0
1018 54 0
1428 -530 0
-574 -1026 -753 0
-1590 -1461 0
-172 -1155 0
1047 1015 0
-1369 526 -7 0
-1462 -786 -534 0
-401 -1543 0
-1422 -556 0
797 691 -1183 0
339 -202 -500 0
1453 106 0
-472 -1685 0
-231 -882 -498 0
1676 1662 0
-406 -715 0
1086 747 0
996 -111 0
1537 -587 0
-1523 93 -144 0
1797 667 0
-277 -1708 0
-1321 -465 0
-782 398 0
-684 1771 0
-1576 303 0
1511 -1160 81 0
1020 968 -1291 0
338 -519 0
-371 1093 0
-786 121 0
-930 -855 -789 0
-1126 -440 0
-941 -1792 0
1166 189 0
-445 -823 1396 0
1389 1308 0
1103 -1637 -717 0
-634 1260 0
-893 -454 -702 0
602 410 0
1565 -445 0
148 -17 0
-1293 1562 0
1179 445 0
-997 -1408 0
-356 -100 0
-259 486 -1002 0
-1185 -1432 0
-1292 1363 0
1558 1041 0
588 1460 0
1761 -240 0
536 -340 660 0
1465 810 0
-562 -1304 0
-1161 -1310 0
1497 -247 0
1432 1185 0
39 -1775 0
827 1146 -453 0
-892 -1392 0
-848 1055 536 0
69 -778 0
-127 -137 1020 0
1696 783 0
556 1422 0
-1203 -908 0
-1176 -1638 0
1341 -343 0
34 699 0
-495 -203 0
-258 -1543 0
-1782 1312 176 0
-514 437 0
1354 0
-1084 1230 0
-431 -1349 774 0
-815 -1303 0
597 1623 -1530 0
-1689 1132 205 0
-205 -1132 0
1777 0
610 -1073 0
-1503 -187 0
-248 450 552 0
60 -764 0
-471 -383 0
1234 -1219 0
-1020 -968 0
-1318 -1522 0
1455 1513 0
1647 609 0
-194 -1795 -1755 0
-461 1505 0
-451 1550 0
-1524 -966 0
529 121 0
1653 0
1132 -492 0
-10 -1290 52 0
-531 -1017 0
696 709 0
103 231 0
340 -670 0
-1620 -132 -1489 0
-1407 -1149 0
1554 -1712 0
1660 1198 0
608 0
-1398 -888 0
647 -899 0
-328 895 0
275 -1589 0
860 1148 0
-177 1791 0
1619 1225 0
-751 157 0
-1534 -1718 0
-260 -888 0
-1697 405 0
-1715 1431 0
541 534 0
-496 -98 0
497 1143 -243 0
604 -1708 0
361 -569 0
-542 -1565 445 0
-755 -123 0
1119 1796 0
574 -386 0
821 -165 0
-1758 -1189 0
1036 135 0
-1195 -1224 -130 0
1211 -686 1526 0
1215 -1183 0
-6 1035 0
973 -172 0
-1464 419 450 0
1394 -425 -433 0
-739 220 0
619 1478 0
848 -1055 0
-751 384 0
350 -735 362 0
-993 996 0
202 -420 -339 0
-1228 -372 0
1177 -270 0
-1526 -1211 0
672 -1805 1807 0
1019 -1736 0
-1140 -385 0
136 -1061 0
-961 -470 0
-1095 -1779 0
865 -1232 0
724 0
-1328 -267 1717 0
855 -1802 0
863 -468 0
1017 -913 0
-377 -1295 0
246 484 0
-348 524 0
-1823 -185 0
1431 1668 0
-934 1383 0
-890 652 0
1787 -14 1510 0
109 -980 0
108 0
1527 -208 0
-641 567 0
-612 1490 0
738 791 -486 0
105 -317 0
1123 691 0
1520 1588 0
-452 1635 0
519 -879 776 0
-1238 -94 0
1737 -21 -129 0
-501 -1468 0
1654 -1094 0
20 307 0
-1180 -956 0
-1052 1646 0
73 -605 0
1341 518 0
-395 1760 188 0
1045 1601 0
656 -1021 0
-24 396 0
759 748 0
368 496 0
-353 -782 0
-128 159 0
-357 -925 1374 0
-1777 826 0
-85 0
-676 46 0
-1623 -597 0
-544 -294 0
-1615 -1652 0
274 -444 297 0
531 0
1029 -653 0
-1496 -477 0
-316 -277 0
774 -612 0
-1592 -564 -245 0
183 599 874 0
1364 -130 -1218 0
-1061 1207 0
-1089 -42 0
984 432 -1221 0
-644 1632 0
964 -695 -488 0
674 0
-131 -680 -1127 0
1060 367 0
-880 -791 0
-451 1630 0
-970 805 0
115 -1216 448 0
899 295 -647 0
-1156 -1240 0
-1707 -716 0
347 1054 0
1613 -830 313 0
-185 -1587 0
79 -1490 0
-1730 56 -958 0
-1356 -909 0
32 -927 0
879 -546 0
1345 -1402 0
-991 1820 0
-1703 -1310 0
-151 -978 0
1816 -1626 0
458 46 0
-278 -1053 0
-1251 797 0
1612 -626 0
-1003 478 0
1605 1150 1125 0
847 -1658 0
-788 -1072 0
-1364 997 979 0
-1793 -1107 0
105 -379 0
948 1449 0
1594 -253 339 0
-396 -1648 24 0
643 -739 0
-804 223 235 0
404 1678 -1815 0
-1824 -931 0
1492 -1617 0
1739 726 -1025 0
-645 1122 0
761 -1240 0
314 -1159 0
431 1773 0
152 -1535 0
-346 911 1824 0
1423 -90 0
-524 -1744 1087 0
-1378 1509 0
1768 905 0
686 -1526 0
-1081 590 310 0
1509 -1579 0
-700 -1458 549 0
-1576 -518 0
710 1209 0
992 -173 -1734 0
-1054 1048 0
1504 -1296 0
1376 -1154 0
1075 1745 0
-176 -1312 0
1640 713 0
-1804 1375 -1816 0
914 1237 -1065 0
-676 -1030 -658 0
352 -1280 0
-1755 -675 378 0
-889 673 646 0
1324 1456 0
1634 933 0
1082 1675 0
-1683 645 -1122 0
629 160 0
1427 -1796 0
7 -526 0
1457 331 0
-715 1473 0
559 -646 0
-1527 -348 -253 0
-299 -1656 0
-1339 704 639 0
140 0
-1796 -1336 0
-864 298 0
-1765 -775 -322 0
-550 0
-1319 -65 0
196 -1567 -193 0
1280 1209 0
1529 263 0
-1760 395 0
1000 -1820 576 0
1309 932 0
-267 1449 960 0
689 -1621 190 0
582 0
549 -1426 0
-421 0
-1584 -621 -803 0
-917 -1308 0
1522 1658 1318 0
1307 -1664 0
-1807 -1326 -19 0
1363 474 0
281 -1492 0
1267 -818 0
1794 273 0
-1669 -1709 743 0
-333 1095 0
-1594 -339 0
1120 -1 0
-528 -216 1197 0
-213 -1184 0
1278 -1752 1172 0
-1611 -573 0
1521 778 -69 0
845 1441 -1418 0
946 160 0
675 -378 1173 0
-312 430 0
1811 -1043 0
-297 -1613 0
-1044 1487 0
-1188 520 -252 0
-491 1523 169 0
690 1171 0
-1374 -623 635 0
1110 -810 0
1036 -1508 0
-336 -371 0
1800 498 0
1125 -364 -867 0
921 1493 -868 0
649 -142 0
-1747 1616 0
773 -1555 0
1550 -1261 0
-775 0
-128 -397 1053 0
304 -1617 0
-1579 -1056 0
1218 -1364 0
1464 -450 0
-163 510 0
676 658 0
-693 -1545 0
-562 -640 0
541 721 0
-260 -911 0
903 -1174 1100 0
165 1070 0
-1467 -1114 0
326 922 0
-521 1681 1456 0
953 1792 0
1788 503 0
-944 -1163 1622 0
1188 -520 0
-1379 -1544 -41 0
458 463 0
-1468 40 -1124 0
-1326 1038 766 0
1226 -1625 0
1430 -724 0
-650 0
-1580 0
-1047 -1558 -1015 0
-56 -967 0
850 934 0
-82 -1172 0
1439 -820 0
1320 -1819 0
-1073 -1521 0
1424 -413 0
1295 377 0
-599 404 0
561 613 0
-1264 99 0
-1700 -525 -1736 0
356 11 0
678 1332 0
-1528 1591 0
-1449 -960 0
-1669 -488 -1567 0
334 13 0
-1484 1213 749 0
-1021 -256 -1586 0
1773 -204 0
894 1294 0
-1035 1595 6 0
280 -1462 0
-155 -215 1319 0
528 -1676 0
-1694 -861 0
1608 -928 0
286 1367 0
-824 526 0
-1706 -300 0
-1438 -777 0
424 -88 0
1146 188 -286 0
1488 -621 1602 0
623 1139 0
-1003 -1751 0
136 301 0
-891 77 0
-1688 -245 0
-1049 289 0
1156 1586 0
-1353 1589 -1474 0
225 -1285 414 0
945 -1575 -1664 0
-399 1009 0
-1296 1610 -1116 0
1163 790 0
1520 685 0
1638 1072 0
1810 201 0
-824 -803 0
1380 -1376 0
230 349 0
893 702 0
1198 865 0
-939 -290 0
-302 1365 0
331 1174 0
889 -673 0
-1383 934 0
-571 382 0
-352 819 0
-1108 237 0
-1549 -1678 312 0
-1329 1177 0
-1357 683 0
-1623 1530 0
-654 -661 0
-616 117 0
-861 9 0
-614 -305 992 0
-229 -829 0
822 -1023 -166 0
-433 -1681 0
-1661 -1163 0
1583 1475 1710 0
1410 417 0
-1534 863 0
-605 -1244 0
295 1140 -680 0
-297 -274 0
995 1436 0
-624 483 0
1231 834 -1822 0
-338 519 0
1042 -698 0
-241 708 -1708 0
-1698 1660 0
1219 331 0
1332 1141 0
-1454 -315 1033 0
-1783 -1392 0
1589 -579 0
991 -870 0
107 0
1662 -949 0
-73 838 -206 0
-1208 1438 0
580 946 0
111 -120 492 0
-1449 1048 0
-543 -491 0
732 486 0
-614 -1520 -1588 0
157 572 384 0
-1773 -1039 204 0
423 -692 0
1631 404 0
1153 77 0
-1016 -43 0
-482 1794 722 0
300 1706 -962 0
-1347 851 0
42 -779 0
1154 -1376 0
-178 30 0
-1595 -1052 1035 0
-279 -539 0
-523 -544 0
97 -380 0
-1348 -255 0
1720 -134 920 0
1435 -1536 0
-514 1183 -1215 0
-835 990 0
-1152 554 1679 0
167 -1625 0
1263 202 123 0
-599 -183 0
-873 284 0
-189 -1306 -1166 0
429 637 0
1190 1546 0
-164 173 -992 0
1465 -876 -1361 0
-1710 -1583 0
-441 770 0
-182 1229 0
-281 -1735 0
-965 -1067 -12 0
-1475 -1583 0
-1091 682 -1158 0
-1678 -404 599 0
1387 1386 0
-104 1033 0
1694 -1175 1049 0
603 318 0
-1258 -814 0
881 1686 0
1719 20 0
-589 41 0
-150 1521 0
1713 1261 1071 0
1420 379 0
1417 -509 0
-1130 -213 1387 0
-773 1712 1555 0
518 1576 -343 0
-797 -691 0
1704 -914 0
-523 1745 0
-943 -197 0
514 1215 0
1808 -835 219 0
-1374 -1560 0
612 -628 0
-859 402 0
1121 -1161 0
1050 1705 0
1821 351 0
-991 243 0
669 -426 0
1169 1042 20 0
1699 -36 0
850 -313 0
1471 -143 0
1257 -1011 479 0
1479 594 -1101 0
-958 324 0
-1456 521 0
-439 -1776 0
1609 -1272 0
-768 -1547 0
533 -1161 -72 0
-1628 -1591 0
711 -824 0
-331 -1219 -1174 0
780 227 0
-717 -766 0
-701 679 0
-486 -1138 0
1340 -1822 0
-1151 418 0
1262 -1157 0
-552 248 0
1746 0
-472 -1659 0
135 -1748 1380 0
-66 1232 -532 0
-1424 287 0
1178 951 0
1083 1112 0
-174 -799 0
1700 525 0
-704 -1028 1339 0
747 1108 0
-458 306 0
-1056 118 0
-1801 1336 0
-567 -816 0
-543 1523 0
-1000 870 0
191 0
133 245 0
1023 0
-765 -830 0
1567 193 0
-1277 1518 0
1377 1288 0
560 1600 1187 0
-33 -53 1206 0
648 1491 0
-237 1223 1108 0
-1010 833 0
1669 -743 0
746 -576 1416 0
1335 1138 0
225 -882 -652 0
-864 -50 0
1490 1258 -79 0
1530 -330 0
-809 -77 -1153 0
-690 -1804 1791 0
-881 -1144 0
358 306 0
-842 -972 0
-890 187 0
1764 -1153 0
129 682 1666 0
159 -950 0
-1623 -311 0
1076 164 0
1655 1343 1705 0
211 566 0
1732 0
1812 977 0
-1713 -1261 -1246 0
1199 509 0
-123 161 270 0
884 -1819 0
-128 943 -950 0
-1006 -552 0
1403 -1239 0
-191 -777 0
1357 -683 -512 0
-1016 323 0
-435 -214 0
1383 1613 0
427 -586 0
749 904 0
812 -1580 0
1504 1540 0
270 -3 0
1683 40 0
131 1780 680 0
1383 -830 0
-309 1296 0
111 -1774 0
-944 -309 0
-1101 203 0
-115 1107 1793 0
-240 569 0
973 522 406 0
495 203 0
415 -171 0
-452 1164 -1145 0
526 1192 -803 0
-516 735 0
-1047 -1619 0
1621 -886 0
-975 118 0
-135 -1380 -1036 0
-407 -1069 250 0
1690 -1799 0
-431 -1227 -1773 0
975 -972 0
-1660 1698 1084 0
163 0
507 224 0
850 -912 0
-475 1602 0
1533 29 256 0
-594 1101 0
-5 -1413 0
268 -1412 0
-317 -937 -379 0
1385 1215 0
-1745 1817 -1075 0
895 631 0
-130 -1235 0
782 0
781 971 0
-659 -1152 0
1298 1542 0
-1471 -1208 0
742 1046 0
1368 214 -63 0
505 261 0
794 0
-1430 -577 724 0
-1594 253 0
1700 1736 0
1123 276 0
-520 -405 1081 0
-825 63 0
1575 -945 0
996 447 0
-148 17 0
1163 903 1756 0
-1140 -295 0
363 446 0
-1571 84 0
-557 -1379 -926 0
337 -847 1658 0
1504 -1116 0
-1537 -869 587 0
471 1438 383 0
-1747 -43 -645 0
-870 -783 0
1105 -1643 -1639 0
-393 -843 0
1065 -1381 0
1518 -415 0
-38 44 -551 0
-882 1701 0
-155 456 0
965 -49 0
-1742 0
-1790 -177 0
-44 1250 0
403 -765 0
-384 369 -658 0
796 563 0
190 24 -1670 0
-1605 102 -1125 0
-339 500 0
-1081 18 0
-255 -95 0
-464 248 0
1263 820 1689 0
-554 -1679 0
-277 -1644 0
1665 -539 0
951 435 0
-1676 949 -1662 0
941 1402 -1345 0
-1518 415 1277 0
389 947 0
483 464 -248 0
-1548 -1157 0
-1711 -545 0
-602 569 -1270 0
-794 1283 0
-1495 0
1038 -629 -160 0
-869 1766 31 0
-1275 1443 0
-1153 -1789 -1565 0
-345 1261 0
-806 -201 0
-959 -1701 0
-1164 452 0
444 1494 0
1668 -1563 -1264 0
1097 -1102 0
1072 -418 1395 0
463 78 0
618 0
635 -1560 0
1353 894 0
-1226 -209 0
678 -1293 0
604 -241 0
-503 363 0
-1380 1376 -1700 0
-337 1727 0
-677 948 0
1539 1807 0
1815 -404 0
-1102 1724 -1098 0
-1078 -838 0
1762 261 0
-1245 -48 0
-1100 1174 0
-306 -358 78 0
354 -841 0
1424 -287 0
-1316 -262 0
-1796 1757 0
-328 592 0
1627 -1246 0
-224 -1597 179 0
401 1191 1543 0
1479 203 0
248 -450 0
-1472 1029 0
1493 551 -1687 0
-745 306 0
1238 664 0
-558 500 0
488 671 695 0
-270 123 755 0
-842 133 0
-695 -671 0
1228 1157 -1262 0
-1118 0
-1394 425 0
762 -537 0
419 -278 0
968 -321 0
1559 310 0
-1382 1281 0
1569 -1636 546 0
239 -1818 0
-382 -1190 0
-220 -643 739 0
-1183 -1193 514 0
-993 -95 0
1151 1628 1591 0
932 -441 0
1468 1124 0
1315 -204 0
-133 842 -245 0
-1439 820 0
1413 5 -228 0
-788 68 0
-1386 -1387 0
433 425 0
-1742 584 0
485 -1338 0
982 -662 0
1417 852 0
952 0
-1544 -1330 0
-900 -324 -967 0
1313 -1737 113 0
-752 736 0
1797 -47 0
1792 -994 -1165 0
583 1443 -638 0
926 557 0
1242 -55 0
9 836 0
-468 342 0
279 -575 -1453 0
627 290 0
1284 -1643 1066 0
-346 -1334 1603 0
565 -1035 0
-1770 45 0
-642 1128 0
744 -1823 0
-1397 0
795 1607 0
-938 -1803 0
-451 -1688 0
-1702 -362 735 0
-1634 617 -933 0
1454 -1033 0
857 -1205 0
494 -511 0
1239 1659 0
21 129 0
1821 -1660 0
-623 663 -1139 0
-591 -742 1782 0
473 -128 0
1459 -1691 0
1584 803 475 0
-1647 25 0
-215 -573 0
-1641 -6 0
532 -1232 0
-766 1326 0
545 1115 1711 0
-1090 -41 0
-1645 -1185 0
1414 1258 0
1355 -806 0
-383 -1372 0
-817 -1418 0
-1636 -1770 0
-1074 1188 0
486 -738 0
1713 1246 0
-1005 -395 -725 0
80 -1698 0
1528 532 418 0
1420 -675 0
-1778 184 0
1699 687 0
-1446 1247 -655 0
1201 335 0
-541 216 -534 0
-9 -836 390 0
1794 -1450 0
-1196 -1517 0
-1555 -728 0
643 -1676 0
1064 -1738 0
147 1077 1189 0
139 -1309 -13 0
434 -1133 0
308 0
1506 359 -1140 0
-1171 -350 0
1669 488 -1749 0
151 -35 0
1327 -236 -995 0
1415 -1433 0
-947 469 0
507 1068 0
-1051 535 0
289 -343 0
-939 1687 0
702 -469 947 0
92 1812 0
-1210 -1032 0
-1189 -1077 0
-89 -1447 0
-644 1620 0
1823 1018 0
-587 869 0
-446 -363 -560 0
-1302 740 0
792 -188 -1760 0
-843 -762 0
880 -802 0
-1042 -20 0
523 1725 1044 0
-174 -1468 0
994 723 0
-1525 1622 0
346 -911 0
-1277 1738 0
-81 -1511 0
1377 -1347 -1130 0
159 1394 0
932 -829 1060 0
559 -565 1035 0
-145 -1014 0
1082 1392 0
1208 -1438 -383 0
-239 840 0
-1341 343 -518 0
-129 1629 -682 0
-1398 1014 0
-1342 733 0
-1449 677 -948 0
-378 585 0
1744 -1087 0
1554 675 0
-1247 412 0
1385 1209 0
-1165 -432 -1162 0
-150 778 0
-1318 -1658 0
1736 -158 0
1094 1722 -1654 0
-1690 -1382 728 0
840 -1679 0
658 384 913 0
-477 1156 0
-760 1738 -1064 0
803 621 0
-549 1458 0
1105 0
1802 1575 0
1541 -937 0
1394 -666 0
1695 -147 0
1486 1237 0
116 -1081 520 0
-1223 -218 -679 0
-901 985 0
770 0
-609 -1647 -866 0
671 110 0
657 1239 0
1200 577 0
541 -216 0
1482 -1191 0
-182 -966 -1187 0
-992 -1532 614 0
-767 -1328 0
773 -1712 0
-920 134 0
1197 -986 0
815 1303 -430 0
-1337 -1420 0
237 -1223 0
1311 1322 0
182 1187 -665 0
-1611 -300 0
-1154 -1736 0
-183 0
-17 -615 1294 0
-963 291 0
-1495 -138 0
1268 -601 0
-808 247 0
824 -711 0
310 18 0
23 -1695 0
-23 595 0
918 1275 0
1643 -1066 0
-839 -1150 0
1790 -31 0
-566 1149 1407 0
237 1362 0
-1222 1741 0
1371 731 0
485 -1115 0
-40 -249 -1683 0
341 -169 0
1485 390 0
-1323 580 678 0
-256 656 0
-603 0
-1533 1419 101 0
1518 0
1624 5 0
469 1119 0
882 498 0
1348 255 95 0
-1381 -1593 0
-923 -834 1479 0
-697 927 0
-1439 202 0
51 600 0
-380 -729 0
-429 1115 0
-311 1650 0
456 -479 0
784 -199 0
1491 0
1544 1379 0
1610 1540 -1798 0
1664 1575 0
1253 -1476 0
214 1512 0
595 1118 0
1068 -591 0
965 1067 0
-1616 1016 -323 0
-941 -274 0
995 -998 0
1539 -1805 0
-1667 -145 0
-947 -389 0
-1054 1305 0
1626 -690 0
1122 59 0
-1068 -1782 591 0
1568 -1727 0
751 -157 -384 0
-1124 1389 0
-1533 -29 0
1664 -94 0
1171 350 0
47 1399 0
-1511 1160 0
1538 1004 0
-906 -749 0
-1552 -1507 0
1273 -648 -1491 0
-1718 762 0
-359 1140 0
171 -415 0
-1187 665 0
-370 -1717 0
-794 436 0
-1566 785 -1436 0
-130 1243 0
1435 0
-1250 1722 0
310 -1568 -740 0
1204 387 0
254 -192 -538 0
-1036 793 1508 0
-897 -924 1320 0
-1601 -1501 0
750 -1817 1745 0
-1578 -336 -1566 0
623 1374 0
-117 0
1072 -502 788 0
44 -1250 0
-1465 813 0
488 1567 0
-1814 610 1021 0
-605 1696 0
-1168 -437 0
451 -1550 1261 0
-901 1787 0
-1279 -55 0
-921 -629 0
-162 817 -83 0
374 -1390 0
1770 879 -45 0
-33 -547 0
831 -1810 0
-784 0
1276 -1342 283 0
1214 0
-805 -1474 970 0
-157 1054 244 0
1433 264 0
1382 -728 0
1501 1601 0
832 -1256 0
1412 -268 0
1023 166 0
-363 -1202 0
-490 279 0
117 -180 0
1353 1474 0
1045 -1813 0
-1809 707 0
1756 790 0
1595 1052 0
-1809 217 0
920 -1476 1210 0
-1413 228 0
1462 534 0
-1730 324 0
-962 1672 0
-596 920 0
1476 -1210 0
-1091 -1343 0
-1434 1244 0
1251 -797 0
-1581 691 0
-1054 -244 0
-83 -329 0
-1115 -772 -1338 0
1344 -1034 0
998 -1388 0
-1123 974 -691 0
402 929 0
-1541 937 0
282 1771 -1224 0
58 620 235 0
-430 -28 312 0
-214 63 0
-616 746 0
344 -1784 298 0
-1648 445 -1396 0
-1254 -678 0
1365 -949 0
905 0
522 729 -1155 0
1639 -1105 0
-399 1649 0
-309 1775 0
1116 420 0
1313 1128 0
1031 0
-140 1242 0
1520 1311 614 0
1734 173 0
266 -1401 867 0
1594 -283 0
372 1241 0
755 -1674 119 0
1388 236 0
-222 598 0
-1438 1795 748 0
-1257 638 0
1526 0
-1500 -325 0
-1314 -393 1718 0
-1338 553 0
1022 455 -952 0
264 1506 0
-1569 -546 0
296 -1107 0
-771 -1614 0
-617 1634 0
-1101 -659 0
-828 125 -1408 0
-368 -496 0
902 -1810 -201 0
1297 968 0
-776 -1217 0
341 322 0
-1612 626 0
831 1355 0
167 -275 0
-1551 1746 0
400 -557 0
-494 -1074 511 0
-1203 -802 0
-1775 -1296 309 0
-1721 807 0
1642 -363 0
-738 -265 0
-168 -150 0
-720 299 0
1553 -293 0
-999 329 0
-1666 -682 0
1461 -1127 1590 0
633 -780 -1228 0
1405 326 0
376 397 0
1578 1566 0
-1320 -1009 1289 0
1769 -341 0
-97 380 729 0
1304 1312 0
-1684 -718 0
930 -1370 0
1574 0
351 844 -1198 0
-778 150 -1521 0
688 1114 1467 0
-78 358 0
1358 -92 0
261 307 0
-1632 -572 0
-1823 -1421 -919 0
-1300 1166 -466 0
33 53 0
-78 -463 0
-584 1697 -919 0
1091 1158 0
399 -1009 -1649 0
-1431 1715 0
-1570 -625 0
-1792 1165 0
-511 0
-160 -580 -946 0
-1649 1357 662 0
1478 -1470 0
695 -964 0
1101 -554 0
-1551 1131 0
-1093 683 0
-1049 1175 0
1138 -791 486 0
732 1164 0
950 -159 128 0
-1063 787 713 0
1392 -370 892 0
540 -1595 0
-660 -1561 0
-380 1360 0
137 0
-1294 -954 0
-823 396 0
114 1357 0
1052 -1646 0
-69 -168 1170 0
1196 -148 1517 0
323 0
1596 1066 0
-807 0
-872 0
-173 -885 0
-1040 342 0
-1307 -945 1664 0
1330 1544 0
-1169 -1275 0
1691 -1459 0
-704 136 0
915 -1585 1182 0
1737 -1313 1763 0
370 743 -1392 0
-1067 23 0
-533 -1502 1600 0
195 1769 0
-1175 -1269 0
68 -1069 -998 0
-1787 -1510 0
-767 -636 0
-721 186 0
-304 1617 1735 0
480 -1480 0
-1572 1010 0
1807 19 0
-83 923 0
-101 1533 0
1432 1809 0
1039 -1012 0
425 1536 0
366 -774 1349 0
-354 841 -200 0
1507 -36 1552 0
1641 -1646 6 0
128 397 0
935 289 0
-251 -527 0
-1005 0
-1391 -476 -696 0
86 1650 0
-1008 -1205 0
-1496 -1557 0
1786 1192 711 0
936 0
4 -613 0
451 -1630 1688 0
-467 555 -428 0
1224 -282 0
-1245 1012 985 0
-61 1390 0
-1757 687 45 0
225 -1503 0
-552 -450 624 0
491 1762 0
-1178 -951 668 0
-1130 851 0
-396 823 0
-252 37 0
1 -8 0
580 -1293 0
-422 1775 27 0
311 1623 -1650 0
413 408 -1282 0
-1488 -1602 0
-228 -1606 -771 0
-181 855 789 0
640 837 0
395 1005 0
-47 667 -694 0
-798 1485 0
302 1101 659 0
-576 -616 0
838 1078 0
1152 -1679 0
-161 123 0
-256 -29 0
-509 -1199 -809 0
251 527 0
-71 -716 0
-438 -530 0
422 -439 -367 0
-424 88 0
1570 625 0
582 -1135 0
1324 899 0
-1072 -1638 418 0
1162 -953 0
75 1131 617 0
1422 1463 -1640 0
-132 0
884 589 -41 0
279 409 0
-1343 682 0
1579 -1509 -585 0
1624 -1451 0
162 -516 0
1374 1160 0
155 -1319 0
-569 1270 240 0
-713 -787 353 0
891 0
-1595 -6 0
648 -985 0
-1614 -914 0
21 -544 0
457 -1109 0
631 -1239 0
-565 -673 0
836 0
799 0
-1686 -497 0
-1707 -815 47 0
1219 -320 0
137 127 0
-638 1257 968 0
-719 1213 0
948 -1305 0
348 -524 0
576 -1416 0
592 510 0
734 1403 0
-800 -1371 0
-1410 1530 0
-850 1424 0
371 512 0
1529 1473 0
-1673 -894 1481 0
877 -1712 -1555 0
872 609 0
-1373 -1747 -1618 0
-514 1193 0
-919 -434 0
-321 -1291 0
-1072 -1395 0
1491 -1273 0
-97 -1242 55 0
1178 -1145 -465 0
-479 -155 -126 0
1207 1625 0
1599 85 -1483 0
-703 1033 0
1043 -100 0
-227 -833 1010 0
1507 687 -1148 0
198 -704 0
28 -312 0
-70 231 0
1064 -1216 0
803 -1192 0
-849 -756 0
1136 -756 0
-1513 -1455 -1515 0
-1059 1612 0
1738 -35 171 0
-1756 -903 0
-1714 1454 0
1307 945 0
-1071 -1713 0
1814 361 0
-1140 87 680 0
-1670 990 0
1469 -856 0
112 981 977 0
1373 1618 0
1682 1098 0
1784 -344 0
618 -1661 0
-955 -1033 0
-1063 398 0
-1156 -1731 -1586 0
-447 -801 -996 0
251 -863 -1086 0
783 -548 1434 0
-789 740 -466 0
-1562 1293 0
1264 1563 0
-1304 -1312 1782 0
-319 1415 1577 0
703 -1790 -1033 0
-28 -1498 0
340 -536 0
860 847 0
952 -1022 0
515 1308 0
1409 484 0
-99 -58 0
-116 1081 0
-1429 1237 0
402 0
-567 641 0
1315 -1677 0
48 -1760 1039 0
815 1707 0
1118 388 0
-963 -1174 0
-674 -964 0
865 -862 -1213 0
-230 -349 661 0
1598 737 0
-1285 1716 0
606 0
326 0
459 -1443 638 0
-332 -389 1574 0
-313 830 0
-1181 1663 0
-1713 -1459 0
1534 -843 0
-1404 1077 0
359 -586 0
472 1659 0
446 560 0
1027 138 1495 0
1544 41 0
-1753 -534 0
504 754 0
-141 -97 0
-632 -1366 0
-1313 -113 0
5 976 1754 0
-1607 -592 -510 0
766 717 0
-1408 1363 1545 0
-1334 1099 0
-441 1060 0
1744 686 0
-614 1532 0
1470 946 0
1744 524 0
1092 -33 0
1087 1527 253 0
1628 0
467 -555 0
1642 -761 0
1355 0
-124 -205 0
908 1155 1203 0
1635 421 0
1382 1513 0
-508 -1373 0
739 1393 0
-525 -1154 0
-25 -426 1647 0
-1537 -263 0
-1777 -622 0
590 685 0
1104 988 0
-857 217 0
1815 874 0
885 173 276 0
-1622 1163 0
-1352 -832 0
593 0
872 89 0
1648 -445 0
1240 -761 1156 0
380 -122 -1360 0
-1267 818 0
-1089 -470 0
-1807 -672 0
-1763 -1737 0
1484 1453 0
38 1500 221 0
-1347 -1019 1736 0
-1722 -1283 -1094 0
-1762 -261 -491 0
718 1260 0
509 809 -57 0
-142 1002 1751 0
1065 -914 0
-1489 -1266 0
16 0
-1188 1074 0
1403 -1685 0
-1278 -1172 0
-1443 1169 1275 0
1195 130 0
-1311 -614 0
427 -385 0
-852 -3 0
-269 198 0
1756 1779 1095 0
119 -161 0
433 1324 0
1450 -1147 -1354 0
-366 -1349 0
1800 -959 0
1313 -438 -642 0
120 1667 0
-729 172 1155 0
1091 1343 -682 0
938 1803 -694 0
-4 -1556 0
1025 391 0
1272 0
1065 -1237 0
-1266 760 0
-5 -976 -1624 0
-1292 -1408 0
745 458 -306 0
-291 963 0
839 734 0
887 152 -142 0
988 956 0
420 339 0
672 1274 1671 0
-1538 -1004 0
215 573 155 0
1811 -1692 0
-1330 -635 0
998 -1436 -995 0
1092 -1104 0
597 1078 0
-746 616 576 0
-165 -51 -600 0
1752 -1278 0
-1368 63 0
-964 488 0
-278 1093 0
-588 299 -1339 0
969 -750 0
-1387 213 0
1684 718 0
980 651 -109 0
1121 153 0
-1203 -1155 -1401 0
1052 -1035 0
-1221 736 0
1284 -1429 0
92 60 0
966 182 0
308 1321 -570 0
1551 -1746 -626 0
1351 0
-1660 -1198 -865 0
-156 -897 0
-1786 -1192 0
-1347 -158 0
1040 0
88 480 0
-571 849 0
325 -1652 411 0
-1448 -293 0
-914 -1486 -1237 0
-238 -818 0
1801 -1336 0
837 207 0
1679 -712 0
-688 -1114 0
-1495 -1027 0
-1604 -1351 0
-943 950 0
-1428 0
-672 1805 0
619 11 0
-699 1202 -34 0
-1595 1225 0
722 1147 0
-1606 779 -42 0
-1467 1085 0
1063 -713 0
-722 482 0
1270 602 0
961 470 1089 0
1538 915 0
556 1692 0
143 -1471 471 0
1792 -727 0
348 1527 0
563 -507 -224 0
1480 780 -480 0
455 1358 0
-355 1047 1558 0
-1179 1789 0
581 1521 1073 0
-1729 -1426 0
-1267 153 0
412 354 61 0
-1779 -1756 0
-1355 -831 806 0
10 808 0
-675 -1173 0
1452 -216 534 0
1799 1555 0
-684 -1224 0
-827 898 0
367 -422 0
-391 -316 0
1559 -740 0
588 1339 0
514 -222 0
1360 -174 0
1237 1284 670 0
1753 -854 -280 0
-1367 -286 0
1 -1120 0
-1463 -1422 0
575 1453 0
938 0
-779 961 0
1679 239 -840 0
1093 -1464 -1053 0
-895 657 0
-1286 -1132 1689 0
15 0
80 -1735 0
-983 0
860 808 0
319 1506 0
-153 -1121 1267 0
578 1136 -1631 0
909 1356 0
-1738 -171 0
1232 1213 -865 0
-1501 -314 0
1017 531 369 0
871 -442 -241 0
-1182 -147 0
354 200 0
-751 -644 0
-157 347 0
-100 -1478 0
-763 1500 0
238 818 -1161 0
-970 0
-713 556 0
-111 120 0
-885 -276 0
-638 1297 0
-624 450 0
-335 -592 0
-261 858 0
-711 -1786 0
-563 507 -796 0
-206 0
825 -63 0
-48 1760 0
438 642 0
-662 -1357 0
487 1724 0
-1371 -731 0
-597 73 0
-608 -1657 0
-354 -61 0
-834 -999 0
-405 -271 1697 0
1398 888 260 0
71 262 239 0
-1013 1573 0
1001 -1009 0
-1001 1649 1009 0
919 1823 185 0
-532 1151 -418 0
-542 1179 0
-391 -1025 0
-414 51 0
-220 1662 0
-1493 -921 0
660 1104 1561 0
-993 -739 -1393 0
-729 -522 0
-755 1674 0
-607 -1451 0
763 -537 0
-1164 -732 1057 0
-981 -1587 -1421 0
-944 -1661 0
745 -1469 0
866 609 0
-4 613 -213 0
-516 -630 0
-1604 -733 0
174 481 799 0
1401 1203 0
1056 975 -118 0
-471 -1438 0
-176 1782 0
-175 1234 0
1053 278 -1093 0
297 1613 -542 0
-483 624 0
1457 0
392 -1750 0
-1022 -223 0
195 1109 -457 0
-1414 -1279 0
1120 897 0
528 -1730 0
1173 194 0
-1487 -1745 0
499 -41 0
-928 0
-49 301 1346 0
-494 252 -520 0
-1597 0
-422 439 1776 0
-1487 544 0
1673 -1481 0
1731 -656 0
988 660 0
-1287 430 28 0
-1446 0
-969 750 0
1466 -735 0
-1271 -481 0
-27 -442 0
-38 -221 0
-51 1716 0
-760 -448 0
379 937 0
-1378 1085 -378 0
1364 -979 0
-1440 1584 0
557 -400 1379 0
-809 57 0
-645 1683 0
1638 1176 0
462 884 0
-773 1051 -535 0
-705 1564 0
-1287 1549 0
104 -1714 1750 0
-350 735 0
-1451 -1445 0
1726 905 0
-1057 -259 0
231 882 -1701 0
406 -1537 715 0
-999 1479 0
-1084 1660 0
-1248 1740 0
937 317 0
-776 -482 0
-1788 -14 -1642 0
808 -1010 1572 0
453 -1146 0
1704 -1606 0
-1444 -1710 0
-333 1265 0
1292 1408 -1363 0
-1649 1001 0
-245 -1233 0
-325 -411 0
1019 1440 0
979 -125 0
796 179 0
-976 -1535 0
1144 774 1490 0
-1038 629 0
-651 -1252 0
1638 -418 0
330 -816 -135 0
230 1460 0
-1703 -22 0
-464 -483 0
209 -1442 -1340 0
1348 1393 0
-182 665 0
1492 -281 80 0
1670 -990 249 0
886 -1621 0
-1725 -1044 0
1474 -970 0
-1440 -1019 0
-204 1039 0
1726 93 0
-957 0
-427 0
-1723 1721 0
-639 -1079 0
242 971 0
-219 835 0
-1055 -536 0
1134 1674 -299 0
195 -1723 0
-907 -1211 0
1432 1114 0
267 -1717 0
-374 0
993 -1774 0
-152 142 0
1785 -1040 0
-1598 1235 -737 0
714 0
731 1750 0
712 -1425 0
-1698 -1458 0
-618 1661 1525 0
-201 977 -764 0
-207 -837 0
-883 -936 0
1674 -1656 0
-1807 1805 -1539 0
-1680 1252 0
-31 -1791 0
-1532 1333 0
643 949 0
127 321 0
1347 -1377 0
112 285 0
911 -1014 0
-633 1228 0
997 1408 828 0
-1770 -879 0
1012 -1039 1760 0
-1180 -1561 0
145 -492 0
-310 -1559 740 0
-1220 568 0
-738 -791 0
1281 -1515 0
-20 591 -307 0
847 -247 808 0
569 -361 -1814 0
-527 -1534 -468 0
-874 -1815 0
-135 417 0
-1066 -633 0
589 -873 0
436 -1654 0
710 0
-881 -628 0
1286 1411 0
1775 -871 0
137 -1020 0
1471 1208 0
-1181 692 0
-64 -1666 0
-1441 -83 0
1781 -723 -1582 0
-704 -639 0
-242 -1548 0
-1204 -387 0
-1645 0
1545 693 0
-330 816 0
-152 1535 0
742 -1782 0
-1259 729 0
-844 1198 0
-1453 -1484 -106 0
-664 -208 0
-892 370 0
-902 1810 0
1157 781 0
-935 -289 -1204 0
-1281 1515 0
883 936 705 0
-1574 332 0
-1085 378 -585 0
1312 -91 0
141 -916 0
-1807 474 0
1754 -607 0
-1135 -409 0
-210 381 0
1764 1137 0
873 -284 1090 0
648 -1787 0
802 -880 0
-1262 7 0
-1369 -1157 -1228 0
-1385 -1209 -1280 0
-1410 -417 0
-1393 -1348 0
1287 -28 0
1378 -1509 0
-337 -757 847 0
-284 0
-580 1516 0
-8 0
-753 1651 0
1506 -385 0
-1050 1785 0
-1289 1009 0
-657 -513 0
752 -1097 1682 0
1047 1619 -1817 0
-359 -1506 0
-219 -467 -368 0
1678 -599 0
129 940 -1737 0
69 -1521 0
-374 -1767 1390 0
-1080 1359 0
-1000 -576 0
165 -821 51 0
-640 -1102 -837 0
1687 -551 0
491 -169 0
1133 -434 0
378 -1173 0
1134 -210 0
253 348 0
-26 -1776 0
1408 -1545 0
1249 853 281 0
-1580 -1256 0
-974 885 0
713 -353 0
539 279 -525 0
1475 1651 0
553 -1195 0
699 -222 0
92 -1022 0
188 -792 0
-1373 1325 0
967 900 0
252 681 -37 0
-1666 -129 0
654 -1564 0
-974 691 0
1099 688 0
39 1743 0
-1792 727 -274 0
-212 -1079 0
558 -500 0
-1602 475 0
873 -589 0
-958 -907 1744 0
832 1333 0
1244 605 -1696 0
942 -1535 0
-792 -725 0
1494 542 -1613 0
-1333 1532 0
-1712 -1337 0
-804 -84 -517 0
-1713 -1289 0
-503 -1788 0
133 -1630 0
-487 -108 1034 0
654 661 0
-1182 -1758 1695 0
-1603 346 0
1763 -443 -1531 0
1221 752 -736 0
-1081 405 0
-724 577 0
1795 1755 0
-77 1137 891 0
-1671 -1539 0
1573 456 0
-476 0
374 1767 0
487 -632 0
-256 -1533 1448 0
-190 -24 0
1670 -1808 0
1268 485 0
-1145 570 0
-195 457 0
1637 1038 0
1091 -1190 0
-895 1239 -631 0
1560 -635 1374 0
-1234 1219 1784 0
-96 -1096 0
-1751 -1002 0
-451 -1261 345 0
-1486 -1593 0
1636 -1569 0
1346 12 0
-1006 518 0
-590 -685 0
-1014 1398 0
-113 1737 0
628 -612 0
90 -730 -1007 0
-1007 232 -28 0
-365 -296 0
-1228 1262 0
1412 -574 0
-925 -460 0
1442 -209 0
435 -1217 214 0
-550 1427 0
1547 768 0
669 816 0
1393 993 0
162 -817 0
1472 184 0
875 -1032 0
-732 1002 -486 0
-1806 -1677 0
476 1391 0
-977 -981 1220 0
269 1061 0
-597 86 1530 0
1664 -1483 -1238 0
-225 -414 0
-1818 -1437 0
689 0
-1059 -1323 1562 0
1433 -1415 -1577 0
-1166 1300 0
54 -744 1823 0
-1139 0
1556 -121 786 0
1707 -47 0
-1557 1240 0
1338 -485 1115 0
-615 1541 0
-1488 0
400 574 0
192 -254 0
-1754 -5 0
1129 883 0
1207 -1589 0
809 1199 0
-915 1585 0
952 -455 0
-1558 -1356 0
-30 244 178 0
1028 212 0
243 -881 0
240 410 -1761 0
1063 -787 0
-1080 1680 978 0
-298 -906 0
1299 -1578 0
-1685 0
1689 -205 0
-1361 -653 -1110 0
-1069 -1317 0
208 -1527 1346 0
-1668 -1254 0
575 582 0
1212 1043 0
-1131 -1059 1551 0
800 -392 1371 0
653 -1778 0
1125 -102 0
-244 30 0
1040 -1785 -342 0
862 -865 0
-1540 -1504 0
1223 218 0
-184 0
-942 -1191 0
1708 -708 0
-1780 -131 0
-1138 791 0
-703 1368 0
1129 493 0
1759 -1501 0
-761 -477 0
-878 902 0
-1741 1222 0
-1647 681 426 0
-463 -745 -458 0
27 442 0
-1151 -1628 0
1051 0
437 1168 0
1033 955 1790 0
1063 -398 0
1015 1558 0
1717 370 -636 0
-870 1000 0
1264 -1431 -1668 0
206 73 0
270 -1177 -1603 0
-414 489 0
1178 -668 0
753 -1710 0
-1366 -1443 0
530 438 0
-1141 -1668 0
1485 861 0
-1772 53 0
431 -774 0
-170 -327 373 0
223 -92 1022 0
-301 -1346 -12 0
-489 414 -51 0
76 -631 513 0
-1689 1286 0
1746 626 0
-1577 319 0
291 -1457 -331 0
-774 -1144 0
1644 695 0
-1750 -104 0
836 -390 0
41 -499 1379 0
1429 -1284 -1237 0
447 801 0
-449 154 232 0
-235 -58 0
1464 1053 0
1140 -87 0
462 -924 0
1816 -1375 0
-783 548 -1696 0
-1527 -2 0
-828 1309 0
-1042 698 0
1631 -578 0
733 548 0
-1814 -581 0
-379 1554 0
1296 1775 -39 0
-535 -877 0
-1237 -670 0
64 1666 0
-1445 606 0
1527 -1346 2 0
135 -330 0
-1365 -841 0
-1143 243 0
-1339 1028 0
-1194 -684 0
615 17 0
1477 459 0
1071 -1653 -1627 0
-1047 355 0
-1794 -273 -1386 0
1126 440 0
869 1409 1537 0
1465 -765 0
601 -1268 -485 0
-42 64 0
-443 423 0
-1729 0
-548 -733 1342 0
-546 -45 0
858 74 0
-156 1442 0
-1308 501 -1389 0
-690 -1702 -1171 0
-449 -1498 0
-219 -1024 0
-852 -138 0
1581 -1111 1251 0
-1405 -326 -922 0
-234 1145 -1164 0
764 201 0
1144 881 628 0
-1077 -147 0
634 950 -900 0
14 1642 0
949 200 0
796 -507 0
-1682 -752 0
1148 1497 0
-1266 644 0
517 804 0
-322 -341 195 0
-1732 -1711 0
1308 -501 0
-1332 -1141 0
-428 -272 0
1809 -217 857 0
-1235 737 0
1797 1803 0
1127 680 0
804 -235 0
907 958 0
1149 -1396 915 0
867 364 0
499 -635 0
-828 334 932 0
1255 -1233 0
552 -624 0
-819 -1209 -710 0
-1339 -720 0
388 1067 0
1702 -735 0
807 457 0
-298 846 0
-1564 1129 0
1068 1782 0
-1691 -1009 0
494 520 0
-752 1097 0
1503 187 0
-119 1674 0
-1728 -115 0
1109 -1070 856 0
1036 1380 0
-933 1092 0
-1186 1482 0
1026 593 0
178 347 0
615 -1541 -105 0
-514 -699 222 0
181 -789 0
-1665 -1391 -1793 0
146 -1255 1233 0
506 1675 0
1772 -53 0
-162 -1441 0
-279 1453 -409 0
746 1382 -1281 0
794 -436 -1283 0
443 1663 0
854 -1753 0
-102 1605 0
1349 431 0
489 -1299 1578 0
-1251 1111 0
647 87 0
1482 -1514 0
-426 -681 0
841 1365 0
433 899 1681 0
-1241 -372 0
1074 -511 0
458 -1030 -439 0
1271 1468 0
-1301 -667 0
888 0
-1100 -790 0
-75 -617 0
1586 1021 0
-709 -1793 0
220 -1662 0
-1255 0
-145 492 -1132 0
267 -960 0
-708 241 0
-1516 160 580 0
-421 -234 -1635 0
1502 533 0
-917 215 0
-894 -1353 -1294 0
527 1534 0
-743 1392 0
256 1586 0
-1090 284 0
-295 680 0
1396 -915 211 0
-1522 -757 0
-328 -1095 0
-588 -1460 -1088 0
-1085 -1334 1467 0
-111 1774 -993 0
502 -998 0
742 591 0
-292 1119 0
1314 -1718 0
-382 1077 -922 0
1069 407 1317 0
-1814 -460 0
1243 -1224 0
-1529 -263 0
-1315 1677 204 0
-739 -95 0
-1490 -1144 0
-495 -1444 0
49 -1346 0
1211 907 0
-688 -1099 0
1617 -1492 0
-625 -1095 -1756 0
-1447 -1647 0
811 -1212 0
-1419 453 0
-1720 1231 0
754 -107 0
992 1532 0
245 -842 1688 0
1334 -1099 1085 0
810 -1110 0
-251 1086 0
927 -32 1303 0
-1803 -1797 0
1287 -430 0
1264 -99 -1306 0
895 -1265 0
-1068 -507 1046 0
-1482 258 0
-641 -1270 0
-793 -1508 0
877 535 0
1184 -561 -131 0
-1113 1385 0
1287 -1549 0
98 496 1024 0
-435 1217 0
-371 -512 0
55 -79 1279 0
1061 -1207 -1625 0
544 -21 294 0
1546 849 0
858 -491 0
1039 1773 -1806 0
1408 -125 0
-232 28 0
1352 812 0
880 -898 791 0
-509 57 0
