c MORPH-SAT unlabeled compact AND/OR/NOT tissue, 192 organs
p cnf 1824 4416
1591 0
-581 -1574 0
-1433 32 0
-917 -393 -1635 0
-751 1371 -1340 0
-248 -1785 0
1177 1586 0
-1274 -811 0
1675 891 0
-80 -658 0
266 -517 0
-36 -1326 0
1610 -66 -1326 0
-895 1813 0
-1638 -504 1648 0
-1221 -1488 0
1084 1590 0
-476 652 -694 0
-315 545 1782 0
125 -723 0
-451 -1298 0
1106 461 -417 0
285 1790 66 0
-1617 610 -42 0
446 0
1106 1000 0
461 1461 0
1601 -1138 0
-254 -979 -67 0
-1179 690 0
103 954 0
290 -157 1332 0
1306 -807 394 0
1396 -668 0
1745 0
-152 -244 0
-1054 -1780 0
1777 -1413 -696 0
-60 -134 0
95 -973 -1491 0
-404 -1301 0
417 -461 0
-1689 -685 0
1017 -1530 681 0
-221 1155 0
884 1691 1246 0
1419 1509 0
1437 812 0
1033 1195 0
-1332 157 0
-451 -1438 0
-726 -233 0
1694 -771 0
663 1081 0
364 -382 0
605 810 0
-1635 1406 0
-1034 -13 0
1802 -1823 -141 0
674 965 0
-1458 657 0
374 887 0
1812 -453 0
1554 -609 0
-187 -749 0
-1390 1730 -804 0
-1690 866 -798 0
718 335 0
-1064 256 0
877 1768 0
1388 1038 0
-935 826 1306 0
-660 1313 0
-469 -376 0
-1267 -1062 -489 0
1554 -1379 -1775 0
1669 1215 0
400 -475 1816 0
-607 608 1416 0
-686 -919 900 0
-1457 -1184 334 0
-1271 1 0
-506 -811 1407 0
494 136 0
-536 431 -1634 0
-579 1595 0
-598 -1673 0
1811 -638 0
1289 -139 -778 0
-663 -198 -1365 0
50 619 0
-808 276 0
826 -1532 1310 0
-1760 -291 0
880 1380 0
656 -1570 0
-1541 -1377 0
-846 -1600 27 0
754 1717 213 0
-1744 999 717 0
416 1617 -610 0
-1706 -858 688 0
-867 1690 0
907 133 1570 0
-1061 -460 0
1071 -1696 0
-99 1594 -1302 0
-964 -620 0
-625 -931 0
-1695 1353 0
1129 0
-1460 -1815 0
-1596 1476 0
604 -325 0
316 1269 54 0
467 -1287 0
-1575 81 0
-582 1262 -1778 0
453 144 0
1067 0
885 526 0
-372 984 0
-720 -1330 580 0
1402 900 0
-466 -377 -1094 0
-1543 -6 174 0
471 -1712 0
265 -1601 0
-448 -1068 0
1451 731 0
-260 -1655 0
-1425 -1757 -220 0
237 -381 0
-961 -85 0
-1101 -1276 0
-1498 -1724 0
-967 -1147 0
925 1512 276 0
287 336 838 0
1415 -827 0
1448 -905 0
-1086 1079 0
908 477 0
1005 -1609 345 0
-1082 1180 0
-373 1704 -412 0
1520 -1500 0
799 -1748 0
669 147 -1427 0
1045 791 0
1564 203 -608 0
-1067 -1626 1061 0
1604 -339 0
143 107 0
1514 -965 0
-217 -537 0
1085 -1445 -447 0
1609 -1005 0
-1154 -1105 1141 0
1727 -63 0
-910 -1747 0
520 1185 0
-167 -52 -640 0
-1569 1005 457 0
-373 280 539 0
1789 -491 0
1824 1739 0
-1388 822 -1038 0
1591 -1248 0
915 676 0
984 1631 0
517 -1211 0
729 1538 0
-349 -155 0
936 -701 0
857 1165 323 0
-923 1365 228 0
-906 406 0
-404 1488 0
1234 589 0
-621 -1506 1125 0
1177 -1422 0
1025 1504 -133 0
1556 -1596 -173 0
-1380 -1710 -880 0
743 101 0
-1510 767 0
-1805 0
-27 1600 0
-1691 -1246 0
-1748 1402 0
-333 864 0
21 1465 0
-557 -1112 0
-1701 -1211 0
973 836 0
-543 -384 1327 0
1428 1480 0
-1634 4 48 0
1249 1193 0
1210 -1032 0
1314 -905 0
-1318 1198 0
81 -295 928 0
-1650 -620 649 0
1384 553 -684 0
1138 -1601 0
-463 -1170 -637 0
543 384 351 0
-316 -1269 0
-1797 0
750 -1540 0
850 19 0
897 1396 0
-479 -869 0
-819 -1629 0
-1264 0
-1102 -1684 -1334 0
-364 382 0
-1438 -743 -101 0
-1628 759 0
-366 637 463 0
-999 -521 0
-1110 -577 0
-535 446 -144 0
-261 114 0
1749 0
1143 -1218 739 0
548 -833 -713 0
414 -735 -1235 0
-670 930 0
1773 -510 0
-1739 -153 0
-430 329 216 0
24 462 0
387 -1391 1112 0
585 1175 0
1717 -313 0
1558 -2 0
1360 109 0
998 -1105 0
-1557 -1495 0
-1574 752 -350 0
-1526 -1378 0
113 -846 1185 0
942 337 0
1031 -1605 0
265 -1720 243 0
-455 -1498 0
660 633 0
526 381 0
1733 -216 0
1014 -1366 0
1587 1392 -1607 0
1719 1646 0
406 1003 0
-1654 -800 1213 0
970 -1178 0
-472 -1675 0
1619 0
-142 1215 0
-1288 -956 0
1133 250 -1572 0
-181 1651 -324 0
1216 -250 0
1130 82 0
951 -1342 0
1663 455 1498 0
1272 -102 0
1765 1536 0
-1688 -1525 0
-113 -1185 0
40 -1201 0
-1568 730 0
-302 -116 0
249 -1119 0
171 0
-1348 -616 0
-18 85 0
-1477 53 0
1478 -1503 0
-1339 1411 0
-1617 -416 0
131 754 1480 0
-760 -117 -1161 0
1351 1805 0
68 -1799 1248 0
1182 -1158 0
-1053 -933 0
816 -729 0
618 430 -983 0
1321 403 -236 0
-881 945 0
-440 1540 -761 0
-342 -1453 0
-1435 -172 0
1292 -1608 0
100 -229 0
-1587 -1207 374 0
-1674 310 0
1302 -1056 -994 0
-196 -1526 0
1280 1012 0
-356 1283 -29 0
790 1511 0
1791 -782 0
-465 1739 0
1657 1549 0
-164 662 0
-358 472 -572 0
-1809 -1537 0
-1150 216 0
573 -753 895 0
1320 -344 0
-123 1046 0
-1463 -1620 0
1258 -974 1599 0
610 -932 0
96 0
1039 -552 0
819 -1400 0
413 -1600 0
-412 -692 0
1473 1772 0
574 -881 0
-195 -1427 0
-887 -1361 -1091 0
794 834 -1308 0
1710 880 0
-246 -953 0
178 -87 0
-1279 903 -885 0
1152 -1412 0
894 1577 0
236 967 -1321 0
1671 -707 -1210 0
-1786 1302 99 0
733 0
-1324 516 -1181 0
231 1050 0
-233 1321 0
-595 795 0
1324 941 0
1091 1361 0
-359 1242 1571 0
-1065 -109 0
1527 -957 -1516 0
860 1803 0
-1368 -643 0
-678 -1315 1342 0
-1138 913 0
1037 -859 0
795 197 0
194 -1658 0
1801 -512 0
-1741 1820 1407 0
780 0
79 1496 0
-1539 1781 0
448 -223 1068 0
1284 -28 -1118 0
-828 499 662 0
-46 1024 0
-487 -745 0
-695 129 0
-1073 -1795 0
-1364 765 474 0
-1140 -420 1362 0
-162 -1188 0
434 -703 0
-1343 -185 0
-966 -419 -442 0
1252 0
-1544 307 0
-1721 877 0
-1612 -1585 -981 0
-284 1805 0
324 -1651 0
1626 -1662 0
-156 1320 923 0
-543 1095 0
-1194 0
1569 -457 0
-1277 1026 0
-968 112 -207 0
1499 0
-150 0
744 1340 0
-1395 1765 0
-1526 1120 0
339 -826 -1306 0
-1766 -1399 252 0
-1587 887 0
898 -1446 0
-344 923 0
-1437 -1483 -812 0
-1811 638 1328 0
-1071 815 0
-1241 926 0
303 -200 -1573 0
1528 568 0
76 -1362 0
1678 693 0
-1807 650 0
-1614 104 0
-1258 974 0
-1353 1070 0
1278 -1501 0
49 -1656 0
648 -1040 0
-1359 -363 0
-1615 1124 0
222 -110 0
1804 -607 0
306 -337 -942 0
-1581 237 0
-788 288 0
1328 1060 0
175 -988 0
-231 844 0
670 -1727 1790 0
-511 -1197 -177 0
-1275 226 0
129 1266 0
879 971 -1135 0
-160 1559 1455 0
683 976 0
-1755 -996 0
838 0
350 -752 0
810 -1434 0
-983 52 1022 0
102 -718 -1272 0
-1383 0
-999 1744 0
377 466 0
-953 -1139 0
398 1095 0
1494 390 -116 0
-367 -406 0
-194 1658 894 0
-864 -1113 0
-420 1349 -756 0
-760 -65 0
1141 -714 1 0
-1543 -299 221 0
-176 1573 0
234 623 0
820 -1204 0
847 990 0
-539 1711 0
486 -32 0
233 868 726 0
-27 846 0
-1265 -1557 0
-1749 930 0
-1636 42 0
785 1733 0
-750 1226 1540 0
-363 -1055 0
935 -826 0
615 611 0
567 0
227 388 347 0
1515 0
-1398 0
-457 -1005 -1491 0
-635 -733 422 0
-1547 165 0
-1242 1527 0
129 -1524 0
-702 -348 0
1479 -1132 0
-67 666 0
-1668 1378 0
-502 1295 0
-1119 258 -364 0
1171 -579 -1290 0
-365 527 0
1388 -822 0
1708 1728 0
-568 -1528 541 0
1266 661 0
-657 1458 -813 0
-1027 1770 0
1427 -669 0
503 1682 0
981 732 0
644 110 0
87 370 0
1541 954 0
1699 -1384 0
356 -1283 0
-1260 1300 0
-1206 506 0
1612 217 0
1614 -104 1519 0
193 1110 0
661 1747 910 0
914 -309 0
232 -1605 -415 0
1223 -1514 965 0
-1164 621 0
1157 1234 -473 0
-344 -493 0
-426 -883 0
497 585 0
35 -1625 0
144 -446 0
1536 -1360 509 0
703 440 -434 0
1240 949 0
973 -95 0
-1792 797 0
-1670 1378 0
-170 -996 0
426 904 0
38 -75 0
897 -1160 0
91 0
-1173 -980 0
1339 -1411 357 0
-900 -1402 0
1581 -1674 0
-1559 1238 0
574 1397 0
-670 -1790 0
-701 996 0
-1628 669 -1397 0
1299 879 0
-1205 -1651 0
-1613 1797 0
919 -799 686 0
-792 -1807 0
625 931 -1367 0
-8 796 0
-856 1518 0
1330 -580 0
1809 1537 0
1170 637 0
-1243 483 0
-349 45 0
-3 1250 0
420 -1349 0
-1588 -119 -585 0
-1600 -883 0
1453 -1333 1129 0
1467 -371 0
408 679 0
992 -735 0
-1586 -664 0
1538 -424 0
-943 -597 -1227 0
-530 -1245 946 0
1024 -1460 0
1763 899 238 0
-60 -1725 0
670 948 0
-1742 -837 0
1290 579 0
-662 -499 0
-1293 0
255 1630 925 0
436 -1234 0
1397 -669 1188 0
306 1160 -897 0
-687 -1340 -744 0
1581 -736 0
-1142 -1691 0
-798 -1475 164 0
1347 607 0
563 835 0
1649 -1429 0
-1320 1036 168 0
1573 200 0
1470 -368 0
-1008 -1728 0
-929 1442 0
-1745 -311 0
1798 594 0
-874 -118 1620 0
1049 1393 0
1303 -760 -842 0
922 -490 0
1724 -478 -716 0
867 70 -1690 0
-191 1271 -1799 0
1653 -354 0
722 -1020 0
1033 652 0
-113 846 0
1440 1564 0
140 73 0
1815 0
496 -1372 -1174 0
-806 998 0
-1769 -1663 0
840 1130 0
-699 -332 0
1119 -258 -249 0
15 -1013 0
-921 1066 0
1597 11 1187 0
390 1473 0
119 218 -1472 0
380 -682 0
1280 -68 1799 0
-1338 873 0
-347 -1785 0
-1578 525 0
736 -1824 -1739 0
-1761 -401 0
-1524 -1251 0
612 784 -961 0
1111 -685 -1127 0
-899 -238 0
-1512 1082 0
-616 1409 312 0
-1549 -1006 -1657 0
675 834 0
-1751 -1054 0
-238 -1113 0
-70 1443 0
-1073 190 0
-53 -1724 0
-1505 806 0
673 1519 0
1292 1370 0
1705 617 927 0
1323 31 0
1144 -1656 0
1355 1819 -1187 0
-1625 1473 0
-1377 542 0
957 -359 1516 0
-38 75 241 0
844 853 0
-588 -766 0
412 1270 0
313 -755 -1171 0
-587 -594 -800 0
1132 -1479 -488 0
-1149 1806 0
-662 164 0
-1071 857 1696 0
478 -1724 0
1777 242 0
718 -1100 -1699 0
124 -490 0
-1039 -947 0
-184 -279 443 0
126 1053 933 0
46 574 0
-1812 477 453 0
1565 23 0
-86 460 0
-1176 -1575 0
-610 -465 0
268 583 0
1335 -1602 0
-769 1639 0
-923 575 0
-115 -628 0
-1738 913 971 0
-958 1226 0
62 -1731 531 0
-945 -212 0
-1087 0
-1050 1712 -435 0
1481 649 0
-384 559 0
383 -45 0
667 -1492 0
1742 213 -1423 0
1652 312 0
644 579 0
-1681 635 0
378 -710 0
43 -1059 0
1273 551 0
-722 -963 160 0
777 1379 0
210 245 0
-159 1075 0
512 488 0
504 -653 0
-1429 1767 0
788 -775 0
-463 -562 0
1003 -884 0
1127 685 0
378 -1118 0
1437 -495 0
958 -1226 0
-301 1763 482 0
-1633 -1131 0
-194 1577 0
-810 -1635 438 0
-545 -1782 0
-1528 0
555 -21 0
981 1612 0
426 883 1600 0
-1084 -1590 960 0
-280 380 0
-297 -1706 0
1536 712 0
1511 689 0
397 -532 0
-1461 711 0
1595 1171 0
1121 -1289 0
-192 1006 0
927 1124 0
-719 -545 0
-100 575 0
-1653 1632 -96 0
-1062 -1700 1010 0
-1331 1523 0
517 1814 0
-589 -565 0
1665 -49 0
-1668 -1120 0
-1580 1755 0
280 -1686 0
326 996 0
1411 -357 -214 0
-1773 1122 0
1218 -1143 0
-1723 -193 0
755 1171 0
898 247 0
-38 1737 -426 0
-769 1766 0
773 462 1042 0
-392 1735 0
-736 1824 0
-1371 751 0
-1531 -186 -914 0
-545 315 0
-1055 0
450 -847 0
-186 1110 952 0
-1203 -362 879 0
-1613 -1036 0
-1409 616 0
1354 249 0
-354 -779 0
-857 -323 0
1596 -1556 0
-1597 -128 0
292 0
-1486 606 0
-720 -941 0
1406 163 0
1256 0
1445 1796 0
-1280 -1799 0
1246 -248 0
-1636 416 1746 0
668 1578 -525 0
-1705 -617 0
147 -521 -1487 0
-307 781 -1754 0
-787 -781 0
1539 1184 0
698 -79 -1496 0
961 -612 0
955 1043 -32 0
-161 -1564 0
-435 0
704 -775 0
-911 1169 0
-1585 1796 0
-264 1130 -116 0
831 -1304 16 0
-918 -229 538 0
-122 298 0
737 1759 0
-929 819 0
359 -1516 0
-1475 828 -499 0
-327 -358 0
314 -118 0
884 1363 0
38 -1737 0
-30 1386 -354 0
1743 -1711 1260 0
-1231 1449 0
-127 -282 0
29 -1399 0
-775 99 0
1422 271 -1177 0
549 -1555 0
123 -1046 0
-1393 -1573 0
-1814 1211 -517 0
-183 1315 -1342 0
1457 -334 0
-1437 -1682 0
-9 -54 0
-794 -1687 0
-1225 280 0
978 841 -1438 0
1044 1513 0
-1594 99 0
1529 0
-14 332 -165 0
1642 1539 0
-547 -289 189 0
1201 154 -40 0
1207 1587 0
1823 59 141 0
-1362 -1374 1140 0
-298 499 -1762 0
-297 688 0
907 -444 0
-527 0
1348 -814 1715 0
-617 -1007 0
-1685 1603 0
1017 -1756 0
1376 1121 0
1724 53 1498 0
313 -1717 0
-1505 875 0
1364 -211 0
-159 907 -391 0
-901 793 0
1711 871 0
-674 -686 -493 0
312 -259 -1533 0
1775 1379 0
1159 -862 -653 0
373 -1704 0
-1329 703 0
-1191 1685 0
-1184 637 -1539 0
681 1180 0
475 -1816 0
-767 -808 0
-1759 -1204 0
-1170 -1244 0
-1660 874 0
1403 1556 321 0
-911 -634 0
1474 243 0
560 343 0
-661 -1266 -129 0
-1459 1349 0
-200 -832 -1049 0
1325 -1083 0
608 -1117 0
454 -921 0
1804 1722 0
-1395 989 0
135 -847 -990 0
1324 -516 0
1041 -510 0
-777 926 -1379 0
886 -1706 0
-239 863 0
-1525 -327 0
-1161 -924 0
-766 -262 0
17 -353 0
1747 -1356 0
-957 -1523 0
722 963 0
1410 -1111 -1471 0
-1785 1716 -1239 0
-657 341 0
-39 1033 0
-1761 -1817 0
-411 -80 0
191 1799 0
-701 -847 0
364 -258 0
714 -191 -1141 0
1229 -1619 0
684 586 0
-1103 356 0
-959 1106 0
862 -1159 0
1255 1487 0
1770 -407 0
854 962 0
550 254 0
1149 -1689 0
-1775 -482 0
331 -1439 0
-762 -790 0
1120 1368 0
-1814 -710 423 0
-1421 681 259 0
-452 -300 0
-1746 -416 0
-795 1759 0
-463 366 0
949 684 -1384 0
-825 -172 0
1355 -365 0
-1444 -1413 0
-1210 1032 0
633 550 0
-1806 1149 -1127 0
-963 1552 0
-1129 -1453 0
-1285 1419 0
1354 382 0
-378 1118 0
-1550 518 88 0
1151 -72 0
-666 67 0
899 -651 -419 0
-1175 -1418 0
-189 796 0
1705 1124 0
-1349 756 0
-1057 -672 0
-1156 1189 1053 0
1380 121 1710 0
1116 1440 0
921 -1217 0
303 -187 0
-348 -407 0
1047 1641 0
690 -1434 0
-1396 668 -459 0
-669 -147 176 0
1539 305 0
427 439 0
1603 -307 0
1367 1363 0
1722 -1270 1572 0
1543 -221 0
-722 1020 1044 0
1077 671 0
-780 -878 -1323 0
759 -162 0
890 705 1621 0
-1725 -1814 0
28 1118 0
-438 810 0
-426 -1600 -904 0
-367 -1521 0
1110 1262 577 0
-374 940 0
-822 -1788 0
832 200 0
-1400 -865 0
1331 -1523 0
876 1213 0
1761 401 1817 0
-665 -654 0
1413 696 0
-621 -263 1164 0
1153 1642 0
980 855 -84 0
1139 -240 1648 0
1802 251 639 0
-40 234 -814 0
1754 307 0
-419 -1589 0
302 -390 116 0
609 957 1523 0
-1774 1263 0
670 -350 -930 0
76 -792 0
-181 1098 0
-648 -448 0
111 -837 0
-508 945 0
-1516 1155 0
-1225 -871 0
278 0
1030 0
1069 -739 0
-1408 -1715 0
953 246 0
926 -727 0
-239 917 -600 0
-1357 -13 0
905 -311 0
98 646 1120 0
204 -418 839 0
393 507 0
-1709 316 0
859 1550 0
-1773 190 0
-957 -609 0
183 -737 0
-901 -1456 0
-1294 962 0
-1819 1187 0
-1401 136 1077 0
685 1084 0
-740 1507 0
295 -286 0
-511 37 1736 0
-1424 720 1330 0
-1335 411 1602 0
-633 0
1304 -1190 -831 0
991 1014 0
1709 -399 0
823 -150 0
1068 0
514 636 0
-631 399 843 0
1158 -1182 -472 0
1148 69 0
-1037 -518 0
318 -1233 0
-1498 -1663 0
694 -652 0
712 -20 0
-1276 -198 0
513 305 0
979 -1391 0
-729 959 -1538 0
450 170 0
429 -192 0
-764 -424 0
-912 -788 0
1284 524 690 0
1139 1092 0
-1448 -230 0
-536 1137 0
1530 -1017 0
-1286 -1019 -83 0
252 677 0
-223 -1040 0
1490 0
-287 -838 0
214 -1411 0
1394 818 0
-842 1503 -199 0
969 1738 0
-1715 814 0
-586 -888 763 0
572 -472 0
-462 -1042 0
1574 -752 0
706 37 0
314 372 0
583 0
34 1742 0
354 -1386 0
-1594 1236 0
-1443 70 0
-79 0
-56 -1301 0
870 -776 0
1693 724 0
-345 111 622 0
-843 0
1440 687 0
332 796 0
-215 462 0
1084 -182 0
-470 -1397 0
1305 1311 -269 0
1699 1100 0
-1508 -1125 466 0
-1776 644 0
-315 -978 0
-1065 0
-930 1749 -1074 0
1395 882 -1765 0
727 803 -926 0
-685 -849 0
-345 920 0
-841 1134 0
-58 -1584 0
1174 1372 0
610 465 -1739 0
1598 1610 0
1132 1801 0
73 19 0
-834 1308 0
671 -746 0
-285 -1790 0
-31 -1323 0
-848 311 -905 0
-1776 -1052 1472 0
1086 -1079 0
-1298 707 0
-772 0
800 -1213 0
-1389 602 0
1682 773 1437 0
497 1458 0
-1344 -542 0
-1623 -234 1261 0
-135 990 0
-1648 240 0
-1373 -1472 0
216 -1501 0
242 -1413 0
778 139 0
1546 -1558 2 0
-1513 -149 -1044 0
328 0
-768 -1315 0
1083 -1325 0
1078 -825 0
1135 -879 0
-925 -276 0
-1162 509 0
715 -546 0
1127 1806 0
-1178 -205 0
-1803 -860 -570 0
468 -785 0
-1675 1158 0
660 -1313 0
-1689 1111 0
-1771 102 0
1647 279 0
1102 1343 0
-1742 1423 0
-213 1423 0
1778 -1430 0
735 1250 0
1358 47 0
-1813 975 169 0
-1301 0
1742 837 -111 0
-1705 1681 0
-1707 1109 0
1548 -1101 601 0
-423 1291 0
905 -1314 848 0
1706 297 -688 0
-506 -151 1206 0
1785 -1246 248 0
-232 415 0
1420 1505 0
-281 1726 -1595 0
1357 1034 13 0
1015 1743 -389 0
-777 944 0
1561 1496 0
-1169 1107 0
1066 -772 0
1327 -320 0
1281 1413 0
-383 0
-1248 -68 0
-643 -547 0
-852 -1686 0
-1556 173 0
-147 1487 0
1345 1590 -890 0
-1432 414 0
1698 920 0
-776 1458 0
272 1163 1090 0
-1519 -673 0
-148 -1424 0
823 10 0
542 143 0
-379 -343 0
-247 -1219 0
1617 42 0
-1116 -510 0
1634 -431 0
-1436 1451 0
1136 -1468 -502 0
-925 -1630 0
299 1618 0
1428 -1740 0
535 -446 0
881 508 -945 0
-843 631 0
-1195 476 0
1070 -1136 0
425 1042 0
57 27 1471 0
-1121 -1080 0
807 1564 0
-1820 1741 0
1745 -396 311 0
333 -864 0
-817 -1278 1501 0
-635 1681 0
455 -578 0
-1434 1284 0
491 -1789 0
1485 1222 0
1694 725 0
117 760 0
889 198 0
1396 -835 0
956 -1097 0
128 0
1562 -1584 0
1303 1408 0
-1316 767 0
1635 -1406 810 0
797 -340 0
-109 -1360 0
1262 -501 0
-204 -839 0
331 1263 -1010 0
-1823 -1462 -1267 0
866 -1443 0
-609 1649 0
1294 -962 1072 0
1007 617 0
513 -379 561 0
1161 550 0
1405 -1396 0
-895 1680 753 0
1381 0
1621 -127 0
-577 -1262 0
1754 -781 0
264 1357 0
459 -1405 1396 0
-1165 -323 0
-1437 495 -773 0
-1225 -373 0
26 894 0
-1549 1366 0
-240 494 0
20 882 0
-547 22 0
-1538 424 -1656 0
1502 -847 0
456 -442 0
-1096 0
429 -1236 0
-921 677 0
1153 513 -1800 0
1421 -259 0
729 -816 0
-155 647 302 0
-1376 -977 1624 0
840 1261 0
-791 1757 0
-1150 -430 0
1058 -415 0
1725 60 -266 0
-445 -1187 0
-1559 160 0
1660 1463 0
66 385 -1610 0
-1317 -790 0
1533 61 0
-1104 697 0
1777 586 0
1807 -650 0
-1537 259 0
-1393 303 0
-1123 -1718 0
-1575 928 0
-181 -658 -354 0
-664 271 0
715 -529 0
-1028 834 0
393 1635 0
919 528 -208 0
-779 -181 0
1060 1433 0
-1520 -369 0
568 1126 0
-1698 39 0
-801 723 0
505 -163 0
-1579 -566 0
1144 -1307 0
1299 903 0
-1678 -753 0
-1362 420 0
396 -1314 0
-1781 1539 -637 0
192 -1006 -429 0
1176 0
720 1181 0
-447 809 0
611 1224 1822 0
115 628 0
-457 -1126 0
262 839 0
-894 -1658 0
-456 442 0
-82 1623 0
-387 146 0
-1256 1506 0
-312 1533 0
1197 511 0
971 395 0
-1047 1716 0
1200 852 0
1227 597 0
1135 -523 0
-1783 1350 0
514 -1001 0
-25 1103 0
-682 -280 1686 0
117 1161 0
-1631 -1390 -118 0
-1449 -1450 0
-771 330 0
1514 0
-540 910 0
-495 773 0
-1245 -1719 -1646 0
1627 -695 0
-22 -1441 1194 0
-274 -1365 0
-94 -1035 0
1116 -120 0
-28 -1285 0
-319 177 0
-1450 1486 0
-1489 -41 0
-709 0
1613 -1797 1485 0
-950 859 -1037 0
665 654 0
606 1449 0
1099 -602 1389 0
-1552 963 0
1460 1063 1815 0
1268 1787 0
704 912 -485 0
-1148 1813 0
1558 -1546 0
-1229 1619 -1000 0
-400 645 0
-1634 1137 0
-1787 -1772 -1473 0
-371 -119 0
623 154 0
881 -470 0
-727 1071 0
1167 -988 0
38 1009 426 0
1747 -1751 0
-564 -1308 -410 0
-1220 -1126 0
1192 -1752 0
-1126 -568 0
458 -883 0
1752 415 0
-1285 1706 0
-287 513 0
829 1294 -1672 0
359 -1571 0
-368 538 0
-1581 1674 736 0
43 -1336 0
-1481 -649 620 0
-598 1375 0
1353 -375 537 0
1174 1345 0
-71 1254 -1398 0
-1191 1121 -270 0
95 1569 0
394 -203 0
-1023 -1694 -725 0
776 -870 -341 0
-1410 1111 0
150 830 -823 0
1435 172 -122 0
111 -34 -1742 0
930 350 0
-1391 -1186 0
-1333 809 0
357 214 0
-1676 520 0
231 1679 0
1175 1418 0
-622 -111 0
948 -1074 0
1318 -1198 0
-1753 -1195 0
-57 -1471 0
-706 -37 0
-1280 68 0
-1179 -794 0
-587 1703 0
1536 -1162 0
515 -741 0
-714 185 1343 0
-1494 647 0
-1350 -1385 1753 0
-1407 811 0
-591 893 -672 0
854 -768 0
628 -165 0
444 -1732 656 0
283 -1444 0
-1009 -38 0
-98 1531 0
-1767 -1649 1429 0
1382 986 0
-1036 -168 0
-550 -254 -1161 0
-1817 466 0
-757 1165 0
1481 1252 0
-365 -1346 0
459 -668 0
1021 -749 -802 0
-706 177 1197 0
-1100 -1601 0
848 557 0
753 157 1678 0
-1393 -1049 0
304 1608 0
898 -509 0
-1466 -51 0
1070 1293 0
-436 565 1381 0
-719 1011 0
-1261 1495 1557 0
854 -1417 -1315 0
896 1206 0
1462 -544 0
1016 -338 -1420 0
-1140 -1057 0
-123 719 -1011 0
-1199 -1652 -590 0
-1627 -1288 0
1376 977 0
-106 0
-1320 1493 0
1780 -1484 0
1557 1183 1265 0
-126 1606 -933 0
1711 1166 -1260 0
-1335 178 0
-1709 399 0
1766 -252 0
1561 1378 -1482 0
1584 -291 0
347 1785 -1716 0
493 1223 686 0
-170 -936 0
632 -924 0
80 658 0
1685 -1603 0
1787 1772 0
98 309 0
-1273 -827 0
-403 236 0
1617 533 519 0
544 -1462 0
-95 -1569 0
-544 1062 489 0
1075 1311 0
721 -595 0
-950 487 745 0
-705 171 0
-934 -1718 0
-724 -1693 0
-437 -1131 0
-503 -1682 0
918 229 1779 0
-549 1230 0
1768 -675 0
607 -1722 -1804 0
-969 -267 0
-1745 396 0
-892 -1009 0
-909 1482 0
-1639 769 0
-226 -508 1275 0
579 -1171 -1595 0
1187 1789 0
-272 -1655 -1163 0
-1433 -1060 0
-824 -580 0
536 -431 0
-178 87 1335 0
-1369 -972 0
1148 -1813 895 0
-820 0
-1216 250 0
-1560 0
-303 -611 187 0
596 -1695 0
1363 -406 0
976 973 453 0
-1028 794 0
1399 -252 0
-1337 0
29 25 0
1639 89 702 0
-770 -1363 -1367 0
699 -8 -1220 0
1096 1086 0
1388 0
-1063 934 0
259 -312 -145 0
-1401 -1713 0
-1289 -1191 0
-799 1748 -1402 0
1307 -1144 0
-626 -117 632 0
758 428 0
-403 -1321 0
370 1673 0
1590 -960 0
1660 -1627 695 0
1476 988 0
119 -1373 0
-1790 -66 0
-92 -1613 0
555 -1709 0
-493 -1223 0
-36 928 0
1453 -447 342 0
-220 -831 1045 0
-332 14 0
-1617 -1051 -533 0
-1796 1612 1585 0
11 -909 1670 0
1664 -1592 0
1448 230 0
-35 -881 -508 0
304 479 0
322 678 0
783 -1382 0
-1654 418 0
1657 1006 0
175 131 0
-468 -1300 785 0
553 -1240 225 0
130 -655 0
1756 -865 -1017 0
-235 0
711 -502 0
747 265 -1100 0
261 1585 0
1611 -744 0
-500 -1469 0
1505 -806 414 0
-471 162 0
181 354 779 0
1036 1493 0
425 -1045 0
-1196 1059 -1337 0
-1145 -30 0
287 -513 379 0
292 -1241 0
1766 348 702 0
-1023 1423 0
1673 -1104 0
-1552 257 -328 0
-163 -1406 0
1446 -898 0
1020 597 0
1560 -1646 1707 0
802 749 0
-72 -1154 0
637 1781 0
-646 -547 0
-1403 1095 0
-1247 1284 0
-1494 -390 0
-1341 -1411 -1029 0
472 1182 0
938 -296 689 0
844 866 0
1162 1065 109 0
-715 529 0
-1428 1740 -1319 0
923 -228 0
1432 -414 -1505 0
224 -293 -1728 0
480 1419 0
-1728 -882 -1708 0
1776 -644 0
-1080 1624 0
-712 -1765 -1536 0
-683 -976 0
-1614 0
-1417 481 0
786 381 885 0
1667 293 0
-387 1186 1391 0
-1683 -269 -1748 0
1409 590 0
208 -528 0
-691 903 0
1526 196 0
-940 995 0
-1265 -1183 0
474 -1755 0
-1176 286 0
-333 899 0
-1012 -1280 0
-1711 -1166 0
-1488 896 0
245 -135 0
-389 0
-1743 -1260 0
581 97 0
-411 -1602 0
-889 -1101 -198 0
187 749 0
1089 1622 0
-1263 1774 0
-238 -1763 0
-605 -524 0
67 254 0
254 1161 -1313 0
-12 1168 0
-1811 -134 0
-201 0
1017 1180 0
-1278 0
192 -1338 -937 0
560 865 0
-1022 -108 -52 0
1362 -650 0
-804 1641 0
-1166 1260 0
1684 1583 0
1167 386 0
484 837 0
-1792 1055 363 0
-201 -1588 1467 0
983 -52 0
5 157 0
1543 6 0
-1161 1313 0
-110 1052 0
-1418 -1669 0
1447 -1811 0
1385 1350 0
-1358 -1367 0
1579 1056 -1302 0
884 -1048 0
-61 -1533 0
-1165 1534 0
1657 991 0
379 1692 343 0
-867 0
-872 321 0
666 1391 0
-34 -484 -1043 0
-1638 481 0
-1370 726 479 0
-242 -1330 -352 0
-890 -705 0
-393 -1469 -507 0
1542 -1197 0
-1774 -746 0
-1738 -969 0
-543 -1403 1563 0
1700 -1380 0
-1059 1337 0
340 1488 -896 0
933 554 0
-1143 -893 0
-493 432 0
-1572 -166 -1722 0
-683 -982 -836 0
813 776 -1458 0
-25 -29 1399 0
251 0
225 0
1572 166 0
-1471 -27 0
151 340 0
1689 -1149 0
-172 122 0
145 -126 0
1304 -16 0
-587 -865 -560 0
964 -487 0
-713 263 0
1312 1141 0
-1093 0
-1008 1529 0
-466 1508 0
733 -422 0
1100 -747 0
-335 -253 0
-738 -648 0
-1795 1459 0
-1153 1800 0
-139 0
258 5 0
-784 961 0
1005 1491 0
-707 1298 1800 0
1414 -1723 0
-886 480 0
1240 -225 0
-698 972 0
621 263 0
-1062 -23 0
-785 1300 0
-1001 0
122 -298 0
902 -1342 641 0
901 0
278 495 -503 0
1746 1794 931 0
1001 209 -514 0
196 -1662 0
-891 -1182 357 0
-1297 1718 0
-1563 1403 0
-907 391 0
-1396 835 -897 0
-684 -1777 -586 0
648 738 641 0
1812 -477 0
-57 -413 0
-177 706 0
1631 1390 0
1335 207 0
828 -662 0
293 1728 0
1792 -797 0
862 1648 0
1052 -579 0
-384 -1104 0
224 -1008 0
681 -1537 0
-1664 1592 0
-424 1656 0
451 1438 743 0
-208 -1193 0
888 -763 0
-1137 758 0
-137 519 -78 0
-1525 1701 1211 0
1198 -1411 0
-637 366 0
-1081 -682 0
333 -1763 -899 0
933 1504 1710 0
436 -1381 0
-92 273 0
-12 0
-508 -1644 0
97 -1304 0
-497 -1669 -1458 0
-1348 -1303 0
737 322 -183 0
375 -1353 0
1279 885 0
1444 -283 -44 0
1529 -1667 0
145 312 0
1330 352 0
-1045 -215 0
-1692 -379 0
1405 -459 0
-965 -674 0
-699 189 0
-1147 0
982 0
1598 1449 0
-87 -1212 -370 0
-1658 165 0
1425 1757 0
814 40 0
875 1035 0
1783 -1758 0
-199 -65 0
-986 -60 -1811 0
1346 -1735 0
-1310 1532 0
-875 -1035 1505 0
-571 68 32 0
1413 -1069 1444 0
987 -1002 0
118 874 0
1680 1618 0
666 640 0
-62 1410 0
1819 402 0
-604 1758 0
-931 -1794 0
845 468 0
-237 381 -1228 0
-642 1521 367 0
-574 -1397 881 0
687 1340 0
502 -1500 0
-486 -188 1018 0
-1548 -31 0
943 -722 0
-1412 0
1700 -1010 0
-458 927 0
84 -855 0
724 265 0
738 951 0
-886 1706 -28 0
1094 -1101 0
790 689 -83 0
-1744 0
3 966 0
-1213 -876 0
-281 0
13 0
689 1079 0
-50 -619 0
1266 -1383 0
375 -184 0
858 1706 0
1479 -1158 -673 0
-567 1202 -24 0
968 0
-1256 619 0
-955 32 0
1140 420 0
1054 0
20 -712 0
-452 306 0
-381 -786 0
851 473 0
-1349 1459 -1773 0
-1109 -1719 0
38 -241 0
-941 1004 0
-650 1422 0
270 -778 0
-1206 -896 0
672 591 0
-1480 1387 0
418 -1464 0
-745 921 -1066 0
-7 716 0
92 1222 0
1801 1272 0
84 1296 0
-395 -913 -971 0
1648 1092 0
-1784 398 0
358 -472 327 0
-1334 0
1008 -1529 1667 0
-351 -543 0
-1316 -1283 0
-1819 -1355 0
-148 -824 0
-145 126 61 0
-348 -1593 626 0
1101 198 1276 0
1515 515 0
1653 -30 0
714 -1343 4 0
1038 -182 0
-1536 1360 0
1545 -1123 0
1370 -726 0
-357 891 0
389 -1743 0
-1728 -1145 0
-275 1351 0
831 1190 0
284 -74 0
-1695 1136 0
134 -783 1382 0
532 -397 0
1312 1151 0
626 -632 0
-140 -1517 0
-849 960 0
-1021 802 0
-1090 -272 0
-1053 -126 0
257 -160 722 0
71 1398 0
764 424 -1307 0
-1125 621 50 0
1762 -288 -374 0
-1356 -103 0
-121 -1710 0
-1300 1260 -1258 0
-1294 -1072 0
-976 -453 0
-10 -823 0
448 648 1277 0
1273 853 -1679 0
-385 1610 0
-1644 -273 0
-975 1343 1583 0
811 1576 0
1066 745 0
1553 -1107 0
-1246 -884 1048 0
-1800 707 0
-1277 -448 0
-1688 1211 0
-1347 813 1818 0
686 -900 0
1277 -1040 0
-53 507 1477 0
292 944 0
1688 244 152 0
1246 -1785 409 0
290 -77 0
-1227 0
1752 -942 0
993 326 0
-112 -178 0
1203 2 -879 0
536 -1277 -205 0
-919 -528 0
993 0
913 395 0
-1822 -1224 0
1599 530 0
1553 -634 0
-649 -1520 1492 0
614 -1147 0
830 855 713 0
510 -1773 1116 0
-1148 -241 0
-318 1233 -173 0
1495 -522 0
826 -339 0
211 -1364 0
-1304 -752 0
1719 -1616 0
121 469 376 0
117 626 0
-1011 0
-154 -1201 0
1368 643 0
1165 -467 0
-231 866 -1679 0
-1284 1118 0
-269 -1243 0
786 -599 1821 0
-618 -108 0
-596 1695 0
1212 598 0
1513 -1134 0
-591 0
-1621 -705 0
-1237 -615 0
1786 429 0
1290 -1171 0
-1743 1711 0
1366 -1006 0
-361 -1414 0
443 -784 0
-144 -453 -477 0
-313 1171 0
-1241 -1379 0
801 1602 -723 0
440 -529 -1540 0
1475 499 0
288 -1762 0
-677 -252 0
1525 -1701 0
-114 132 202 0
-1620 118 0
586 -763 0
1769 -277 894 0
-717 1744 0
848 -1186 0
-406 -763 906 0
78 -1051 0
-1793 -690 0
-1103 25 -1399 0
616 1303 1348 0
-47 1282 625 0
1258 1300 0
-1031 290 230 0
1270 -1722 0
-17 1078 0
-1618 -1680 0
1506 -1125 0
345 939 0
-1472 1776 0
-561 379 0
1318 -90 0
977 -1624 0
-1305 -1351 275 0
714 -185 0
186 -952 0
-81 959 -1106 0
741 -877 0
-425 -1042 0
-1660 -1463 1672 0
56 1301 404 0
457 -541 0
-1456 -53 0
1252 630 0
-1203 -2 0
512 -1157 0
-1022 983 0
-1213 1654 0
-342 -1090 0
419 442 0
-1124 -927 -1705 0
-174 6 0
51 -858 1466 0
-1392 -415 0
600 -917 0
-1763 -482 0
-578 -1599 0
1071 -857 -1697 0
822 1788 0
-698 79 0
741 -515 0
1481 -620 0
441 0
449 -757 0
-879 362 0
1315 1417 0
-1699 1384 253 0
-157 -1678 0
-39 622 1698 0
-241 804 0
239 -863 -246 0
427 1179 -690 0
-947 0
-934 -1024 0
1139 -1224 953 0
-129 695 1524 0
-1217 -745 0
383 1576 0
-1566 -700 0
-317 745 0
650 -1422 -1362 0
-1814 464 0
153 -558 -360 0
410 1308 0
-1268 -390 0
-371 -585 0
1607 -1587 0
195 1427 0
1113 864 238 0
-48 185 0
-290 -230 0
-692 -1168 0
-255 -1253 0
-1598 -1610 158 0
1576 155 0
1546 362 0
-1391 -666 -640 0
-91 532 0
167 33 0
-1303 -616 -1408 0
-402 -1819 0
-331 1010 -498 0
-1232 606 0
-1780 1484 0
-721 595 -795 0
-90 1029 0
-20 -882 -1395 0
981 1585 0
788 912 99 0
-1077 -671 746 0
-408 0
15 -740 0
1436 -1451 -731 0
-1409 -312 0
-219 -767 0
-618 -430 0
-1335 -207 -87 0
1452 0
601 377 0
1119 262 0
1037 950 0
299 1543 0
529 -440 0
-917 239 1064 0
1497 -718 0
1472 -218 0
-453 -836 -973 0
-237 1581 0
60 1811 134 0
-1004 1478 0
1656 -1076 0
1416 -1369 -1257 0
60 986 0
889 748 0
-1711 -871 539 0
-1109 -1245 0
-1097 1509 0
1734 754 0
533 1134 0
-210 -245 0
-1022 -825 0
-925 -1512 0
1464 -64 0
441 1291 -464 0
1093 -1604 0
-1746 -931 1555 0
1427 -147 0
-551 141 -1273 0
-881 1397 470 0
1217 734 0
1161 760 924 0
-804 69 0
1400 1017 865 0
-1638 862 0
1548 878 0
570 1803 0
1254 -291 0
-250 1572 0
272 1013 0
736 1228 0
-444 1732 0
1187 445 -1355 0
-972 -1561 0
241 1148 -804 0
-936 719 545 0
927 904 0
937 0
790 1317 762 0
1687 -1793 0
-917 -500 0
-345 1609 0
1528 -541 0
1579 566 0
951 902 0
-1672 584 0
970 -1751 0
406 763 367 0
-260 -342 0
-1502 -135 847 0
1720 224 0
-1594 1302 0
-162 1050 0
-489 279 58 0
1762 298 0
492 -1295 0
-655 0
-1390 314 0
411 125 0
25 84 0
352 -696 0
943 1227 0
243 -1518 856 0
260 1655 0
-710 -1247 0
-1100 335 0
-1451 0
155 -302 0
1319 -1387 0
1228 -381 0
1080 137 1121 0
-23 1010 0
-131 -1480 0
1574 -1352 0
-710 464 0
761 -1540 0
1117 1257 0
1430 -346 -1778 0
1594 -1236 0
1408 1715 0
-68 571 0
-1354 -382 -249 0
1239 1785 0
-327 472 0
-1563 1784 0
-150 -830 0
-1097 0
234 1623 0
198 663 0
-1672 1463 0
-1597 -11 0
244 -1701 0
457 1491 0
213 725 0
-1522 -534 0
-47 -1358 0
979 254 0
-1068 223 0
106 -1737 0
1534 1133 0
1011 123 0
-846 520 0
160 -257 0
507 -1456 0
851 512 -1275 0
-361 110 0
-1419 -1509 -1627 0
-1288 -1419 0
-1155 1621 -1489 0
-1063 -1815 0
-665 -661 0
1531 186 0
-774 521 0
28 886 0
572 358 0
-1189 1156 0
-1359 -748 0
-1511 1286 0
-1436 1808 0
-1027 -1593 0
-388 -1239 0
-131 -175 0
-668 -1578 0
1012 1591 0
1760 -1584 291 0
872 1596 173 0
1027 1593 0
-572 294 0
-1310 782 -826 0
-1329 -463 0
-1202 -1426 0
-1470 0
1456 -793 901 0
1353 1136 -1070 0
1019 83 0
1297 -1718 1545 0
-884 -1691 0
646 643 547 0
1468 502 0
-340 1359 363 0
-978 -841 0
-716 7 0
914 186 0
-1302 994 0
1659 -1183 0
-272 1507 0
1173 980 0
667 -405 0
-894 -1769 -26 0
-451 -743 0
-340 -151 -1488 0
-865 -1692 0
-357 -1339 0
1475 798 0
1235 -414 0
1262 193 0
-234 40 0
201 1588 0
-792 0
-1668 -1662 0
-829 -1214 0
1742 725 0
798 1443 -866 0
203 -394 0
-612 -279 0
821 638 0
-1365 -228 0
1537 -681 -259 0
713 833 0
478 0
-248 -479 0
1622 283 0
1479 488 0
144 477 0
1708 882 0
-1016 338 0
439 -854 0
-845 1260 0
317 964 620 0
-697 -1325 0
-1085 1445 0
-1158 472 1675 0
-1174 -1345 0
59 -639 0
-678 -322 0
-1303 65 760 0
-1472 1052 0
1219 -1446 -1115 0
266 -60 0
-861 -624 0
-129 -665 0
1389 0
-1429 -1264 0
-462 -24 132 0
168 1114 1346 0
572 -294 0
992 414 0
967 -614 1147 0
984 0
348 -769 0
1716 -347 0
-90 0
503 -278 0
1521 0
478 716 0
-1231 105 0
-226 92 -273 0
-1169 434 911 0
-830 -855 0
-603 -1708 0
-206 566 0
-1141 -1 0
-247 402 0
-957 359 0
-180 990 0
-645 400 0
-606 -1449 1486 0
-1640 -1344 0
-51 858 0
-243 1720 0
1719 1325 697 0
904 1600 0
-856 -1582 0
1258 530 0
1652 1199 0
-988 1734 0
1122 1116 0
124 -1439 0
-1400 -1017 0
903 523 0
1073 -190 1795 0
1791 708 -1532 0
-922 -558 0
-430 983 0
231 -866 -844 0
543 -1327 0
751 0
1303 -65 0
-1551 1088 0
-699 1220 0
206 0
167 52 0
-283 236 -1622 0
-1197 706 0
-1454 551 0
1731 -62 0
82 -1623 0
593 600 0
-539 373 0
-882 -1145 0
1100 -335 -718 0
-824 0
623 -814 0
932 1233 916 0
-1516 -221 41 0
215 -773 -462 0
-322 -737 0
1288 956 0
-133 444 -907 0
-287 -379 0
-878 -1548 1582 0
1404 0
-443 279 0
-186 -552 0
-360 1824 0
-85 -1669 0
55 -516 0
-329 430 0
1439 -331 -558 0
125 -1335 0
1676 -520 0
1074 -948 0
-44 1281 0
-1686 682 0
-1508 -401 0
260 1090 342 0
-1492 649 0
1244 1170 0
-1766 -702 0
1703 -1545 0
-1504 -1710 0
537 217 0
658 181 0
-1332 -290 0
-663 -1081 0
-667 49 0
-1404 1098 0
-700 -214 0
-914 309 0
218 679 0
-1673 179 0
1043 486 0
-843 -399 0
-758 -428 431 0
1028 564 0
-1283 29 0
1489 41 0
-1185 1808 592 0
-501 -582 0
-132 -1426 462 0
-1133 -250 0
-1157 -1234 0
-285 -834 -675 0
146 1464 0
852 1686 0
-1573 176 195 0
-577 1414 0
-556 -26 0
-311 848 0
1191 1544 -1685 0
1662 1668 -196 0
435 -1712 0
1320 -1036 -1493 0
-535 1812 0
-697 179 0
332 699 -189 0
-870 0
935 1093 0
-1397 -1188 0
1192 -688 0
988 -1167 -1596 0
1230 0
-1649 -1331 0
753 -573 0
-1643 868 0
401 1508 0
-385 928 0
485 -912 0
1463 1620 0
1173 -25 0
-1162 -1065 0
857 1697 0
18 -85 0
558 -1439 0
974 -1599 0
1019 1286 0
-595 1758 0
840 -234 0
-641 1342 0
-97 1304 752 0
-4 1343 0
412 -985 0
270 -1121 0
-158 -209 0
1200 380 0
-125 723 0
522 -1714 0
-1212 -598 0
-902 -261 -1585 0
-834 1028 -794 0
-783 0
1799 -1248 0
-1452 671 0
296 -938 0
-1296 9 0
1759 1204 0
-113 208 0
516 -55 -135 0
55 135 0
-895 1309 -1148 0
-59 -1823 0
-938 -1079 -689 0
-927 -617 0
1592 -781 307 0
1454 -551 0
-727 -1160 0
-1641 -1047 0
-1203 1209 0
777 -926 0
942 -415 -1752 0
750 -743 0
-203 608 0
1334 1684 0
-1352 1806 0
1739 153 -736 0
-434 -562 0
-268 -1431 0
1295 1136 0
183 -1315 0
1424 -720 0
498 331 0
-1090 -1163 0
-1527 1242 0
5 753 0
-1459 1795 0
1509 1627 0
447 1445 1431 0
-1422 76 0
-1093 -935 1604 0
1394 -1332 0
277 -324 0
1399 1103 0
1607 232 0
-86 1662 -1626 0
-831 791 0
342 809 0
-209 -1740 0
-450 -170 0
-407 626 0
-1273 1679 0
-1638 -768 0
506 -1407 0
535 -1812 0
-1779 1470 0
-1319 1387 0
911 634 -1553 0
1137 -758 0
-1375 1673 598 0
-1671 1210 0
1736 0
-753 -1680 0
371 119 585 0
-1536 -509 1162 0
1243 269 1748 0
-708 -1791 0
1338 -873 0
1321 -576 0
1281 -1069 0
-1606 933 0
465 -916 0
-1464 860 0
-1208 -351 0
1750 -1572 0
1474 1702 0
1538 -959 0
1732 0
1221 -56 0
-274 -682 0
119 1588 0
-1554 1379 -301 0
474 -996 -326 0
1499 -55 210 0
1109 1245 1719 0
-64 204 0
482 1775 0
1211 -1725 0
-1061 1067 0
348 1593 0
-480 -1419 1285 0
372 -1631 -984 0
-536 1277 -1026 0
-1044 -1020 0
1094 1548 0
735 1235 0
-1501 -785 0
364 1119 0
1146 366 0
-656 1570 0
1671 0
806 -998 0
784 -443 0
1293 -596 0
657 -341 0
-1592 781 0
1450 1108 0
-1254 291 0
-1733 817 0
1401 -136 0
-956 1097 -1509 0
-903 1279 0
767 -276 808 0
1568 -1264 0
-951 -738 0
-739 -1143 0
256 0
-548 833 0
-625 1367 0
-1394 0
-484 -837 0
-676 1297 -915 0
527 -392 0
940 1762 0
-761 546 -715 0
1299 971 0
804 -1730 0
1003 -770 0
1772 0
-1194 22 0
1760 71 0
-1018 955 0
1222 1036 0
110 -1052 579 0
-573 299 0
-636 1740 0
957 -1527 0
-1373 408 0
-1666 1069 721 0
-711 1461 0
800 319 1654 0
-23 -1565 0
1625 -1268 0
741 1395 0
1032 1298 0
101 1567 0
-33 -167 0
211 918 0
-1760 1603 0
-466 1817 1125 0
-208 113 -1676 0
-1350 1783 0
1566 700 1339 0
846 -413 1600 0
-279 -1647 489 0
-28 -1247 0
-49 667 1656 0
-206 994 0
-1169 449 323 0
663 1365 0
345 -920 -111 0
-235 180 0
-521 -569 0
268 1431 0
-1782 841 0
-377 -601 0
318 173 0
592 1497 0
-817 1733 0
-1637 0
-1033 39 -1195 0
744 -1616 0
-1478 1633 1131 0
-1141 1154 0
1689 -1111 685 0
991 0
962 -427 0
-1062 544 0
-972 698 0
-1055 1792 0
-573 -895 0
1238 -1542 1197 0
-1234 473 0
-1625 -212 0
-137 -1080 0
1081 682 274 0
-755 -754 -213 0
236 1088 0
987 1077 0
-1448 -1605 905 0
-353 1022 0
1475 -828 0
-932 -1233 0
-1545 -1798 0
156 -923 0
-1272 488 0
374 288 0
737 -197 -795 0
337 582 0
1000 461 0
-757 857 0
-575 923 -1365 0
-1353 -537 0
415 -1058 -942 0
-1735 -1355 0
-1760 1544 -307 0
584 308 0
1816 0
-1741 -1274 0
275 -74 0
-632 924 0
762 310 0
1520 369 649 0
815 1160 0
300 582 0
682 280 -380 0
-681 1530 0
264 -1130 0
139 -1289 0
917 500 1635 0
309 -1518 0
1013 89 0
116 1034 -1130 0
1480 1734 0
-997 0
340 -363 0
-1091 0
631 -555 0
1048 -1341 -1142 0
301 -1379 0
717 -774 0
801 0
-98 -646 0
-216 -329 0
1022 108 0
-1455 -1542 0
-967 -236 0
-398 0
172 -353 0
205 1277 0
-155 -811 -1576 0
584 1294 0
-494 -1092 -136 0
908 -1486 0
-1616 697 0
1695 -1353 -1136 0
609 -1554 -1649 0
819 805 0
-651 680 1030 0
1056 -1255 0
1412 -1152 -1190 0
-1208 -320 0
999 -1199 521 0
-563 -306 -1160 0
-370 -1673 1375 0
1018 -955 0
-264 -1357 0
-1512 1530 0
447 -1453 0
451 1567 1298 0
577 1723 -1414 0
-1242 -1571 0
428 0
207 968 0
-730 1649 1767 0
624 0
943 1044 0
-639 -251 0
564 410 0
-1046 936 -545 0
-228 -229 0
421 -269 0
-1750 -1133 1572 0
1224 -953 0
-434 -1107 1169 0
-1660 -695 0
-169 1309 0
1323 780 0
1775 -1554 0
-338 0
-601 -1548 0
1477 793 0
694 476 0
-813 -776 0
-63 -285 -66 0
1495 -1659 0
585 1588 0
-1534 275 1287 0
-501 -346 0
-1032 -1298 -1800 0
-1136 502 -1295 0
430 -216 1150 0
-202 -902 0
1751 -970 -1747 0
536 1026 0
-782 826 0
-229 -1779 0
1722 166 0
1770 0
-1666 1218 0
-1702 -1474 0
331 922 558 0
454 -1766 0
-340 896 0
559 -179 0
-1201 0
919 -900 0
1247 28 -1284 0
-1099 -1541 0
-1579 1302 0
1390 -1730 0
24 -132 0
1545 -1703 1798 0
917 393 0
909 -1482 0
523 -1135 0
1051 1617 0
1728 1145 882 0
-153 736 0
133 -1504 0
-64 1654 0
1584 -1760 -71 0
-687 1611 0
-1214 -308 0
-1747 -1484 0
1599 -1663 0
982 836 0
-233 -868 0
-272 -1013 -89 0
-541 1220 0
-1674 -1228 -736 0
-1473 -390 1625 0
135 1502 0
-422 1705 0
1438 1782 -841 0
582 1778 0
735 -414 -992 0
14 -1087 0
-116 -1034 0
-431 428 0
1360 -509 0
-217 -1612 -184 0
31 -1582 1548 0
-872 -1596 0
624 861 -222 0
1586 -1317 0
-319 -1654 0
611 303 1021 0
1224 -863 -1139 0
-680 -1030 0
17 825 -1078 0
3 -1250 -735 0
-1059 -868 0
-1128 -528 0
146 -570 0
417 -1229 0
490 -922 0
-686 -1223 0
427 -854 -962 0
231 -162 471 0
720 -580 0
-1677 542 0
-1544 1760 0
-1115 0
-283 1088 0
1169 -323 0
-1282 47 0
-268 1085 -583 0
1610 105 -158 0
-565 -1381 0
-303 1573 1393 0
1454 1415 0
-604 325 0
1482 -1378 0
-358 664 1586 0
-610 1739 932 0
-934 1063 0
1253 1512 0
1364 -474 0
-648 -641 0
-1513 1134 0
3 812 0
1105 -998 1432 0
-946 1245 0
-1260 1258 845 0
-1359 -1276 0
634 0
563 306 0
-852 -380 -1200 0
-1181 -720 1004 0
-1410 62 0
-3 -966 -86 0
-306 337 0
-1114 -1346 0
905 1031 0
1700 1062 0
1697 -1071 0
-513 -561 0
-1777 1413 -242 0
261 -114 0
1565 -1380 0
1425 0
-1643 576 0
-175 988 -1734 0
1452 -671 -1522 0
-1291 -441 0
-1767 -1750 1216 0
631 -316 0
172 1022 825 0
1501 -216 785 0
863 1139 0
418 -839 0
1458 1418 1669 0
493 674 0
-1006 873 0
-1243 -1748 0
1140 -1143 1057 0
-1263 -331 0
1550 -950 0
-922 -331 0
696 -1777 0
-790 -689 -1511 0
-1510 43 0
-1087 -115 0
-352 696 0
1113 0
-1583 -1684 0
-161 120 0
-1771 592 0
937 1338 0
1259 318 0
264 116 0
-647 155 0
-899 651 0
1235 -1209 0
-532 1352 91 0
-548 -958 0
1625 -35 212 0
628 332 0
-1559 1197 0
1615 -1007 -1124 0
1073 0
-1036 -1222 -92 0
1811 986 0
1026 970 0
-1779 -918 0
-232 1605 0
1774 -498 746 0
-321 -1403 0
-1286 1511 0
659 -43 0
-105 158 0
-1102 -1343 975 0
-274 -198 0
-1641 1390 804 0
921 -454 -677 0
11 1789 0
1650 -630 0
-1753 1758 0
295 -928 0
-829 -1294 0
-610 42 0
1151 0
-1777 1645 0
-1566 -1339 0
-1564 608 -807 0
-296 -1096 -1086 0
163 -505 438 0
-1810 -1637 0
-81 816 0
1287 -467 0
-1305 -74 0
1243 433 -483 0
713 -263 -548 0
1369 1257 0
1119 839 -1729 0
1707 -1109 0
-1024 46 470 0
-894 -1577 194 0
-620 -317 0
-1648 504 0
330 -1714 0
-112 968 0
1251 1660 0
-740 0
1731 0
-1252 -630 -1481 0
-611 -1021 0
39 -622 0
977 0
-1512 -276 -1253 0
214 700 0
854 -439 -427 0
1508 1125 0
-1541 1344 542 0
1578 0
421 -159 0
-1705 422 708 0
436 -1375 0
1250 -1483 0
-1737 426 0
-781 939 0
-939 -345 -1005 0
-1309 1148 0
279 612 184 0
-1390 1641 0
1800 -305 -513 0
1702 856 1582 0
-1238 -1197 1559 0
-1255 -1487 0
-286 1575 1176 0
1374 -756 0
580 824 148 0
1483 1437 0
1248 -1591 -1012 0
440 -562 0
66 1326 0
-833 -1164 0
-885 -691 0
227 0
-107 -645 0
-655 -1316 0
316 555 -631 0
780 878 0
-94 -1697 0
1362 1374 0
-606 -1108 1232 0
-1704 -12 0
-585 -497 -1175 0
-789 -640 0
171 282 0
-141 551 0
1494 -647 0
1374 -1140 0
-1262 1778 0
-334 0
731 592 0
80 779 411 0
16 1152 0
-599 526 0
-1041 510 0
477 1465 0
-1328 1811 -1447 0
1271 -1 0
-1545 -1297 0
-3 456 0
-82 -840 -1130 0
-1611 744 687 0
-1274 -506 0
-834 -1721 0
-1538 1144 0
1077 -746 534 0
581 350 1574 0
1769 -578 0
1346 365 -1355 0
1199 -999 0
-333 1763 0
-1303 842 0
1753 -1758 1195 0
-58 -279 0
-889 -748 0
78 137 0
167 640 0
1794 549 -1230 0
-21 1486 0
1455 1542 0
1793 -1687 0
766 262 0
-552 1110 0
72 -1151 -1312 0
884 -406 -1003 0
-694 0
-1602 -801 0
493 -432 344 0
1609 787 0
200 -303 0
783 -134 0
1245 1646 0
405 -369 0
-933 -1710 -554 0
992 -1203 0
521 1487 0
-1665 1172 1076 0
-470 1024 0
-37 -1736 0
-400 -1816 0
-1372 0
-1246 -409 0
1219 -509 247 0
1080 -1624 0
600 239 0
-1753 1385 0
-1399 454 0
-1157 -1275 0
-1716 1239 0
-1614 -1519 0
1670 -1561 -1378 0
-1306 935 0
-608 807 0
-626 1593 0
1522 -1452 0
-536 205 0
-288 788 -995 0
-800 1703 0
-1467 371 0
-1698 -920 0
87 1212 0
1810 -329 0
-1404 1205 0
1096 296 0
-1442 -1661 929 0
-1199 -774 0
-928 -81 1575 0
1261 -1557 0
-1678 -693 0
974 946 0
1605 1448 0
-213 -725 -1742 0
-1394 -818 1332 0
-913 747 1138 0
954 -602 0
189 -332 -796 0
369 -405 0
-721 1666 0
1674 1586 -310 0
-1214 0
-614 -403 0
-1590 496 890 0
-318 629 -1259 0
-1223 1514 0
-1035 1420 0
1541 -1344 0
463 562 1329 0
-980 -855 0
-1105 1312 0
-32 571 0
657 813 0
1341 1029 0
1267 1823 0
-73 -19 -140 0
-1554 -1331 0
-481 768 1638 0
135 -516 -245 0
-1818 -1804 0
1446 1115 0
-1358 931 0
1447 1328 0
-1786 1236 -429 0
1532 -826 0
1275 -851 0
-742 1754 0
-236 1622 0
675 285 0
-887 -374 1587 0
-1078 0
1727 -670 0
1019 0
-919 799 0
1123 676 0
-1386 30 0
1015 -1166 0
-376 -121 0
1442 1661 0
-184 -612 0
-1320 156 0
25 -1173 1296 0
-440 562 434 0
-1163 19 0
-259 145 0
-449 1169 0
836 453 0
-215 773 0
-1791 782 0
-810 -605 1434 0
-967 1321 0
1535 -459 0
-152 -1688 0
-257 328 0
1083 1616 -744 0
-132 -202 0
578 -455 0
149 1044 0
1551 1089 0
1562 -1647 0
1426 132 0
253 335 0
-616 1652 0
-1125 -1817 0
-1652 -312 616 0
-1324 -941 0
-1185 731 0
-1084 182 -685 0
1384 -949 0
294 -1525 0
-1539 -1642 -305 0
130 219 0
-829 1672 0
-314 118 1390 0
1445 -732 0
707 -1671 0
1538 1656 -1144 0
-15 -1507 740 0
-764 0
-964 487 0
-386 0
-810 1406 0
-185 48 0
299 -221 -627 0
827 1273 -141 0
1049 832 0
-1076 667 0
-169 -975 0
548 263 0
1189 -1606 0
-192 937 0
-410 0
-302 390 0
966 86 0
672 1057 0
583 -1085 0
-41 1516 0
-1233 -916 0
1333 -809 0
-1261 1623 0
-485 0
-39 -476 1195 0
33 -850 789 0
69 75 0
-798 -1443 0
182 1788 0
-679 -218 0
-369 -649 0
-319 -800 0
148 1424 0
297 -1466 0
-1354 0
1563 -1784 0
1344 1640 0
642 -1521 0
457 1220 1126 0
-398 -1095 1784 0
828 918 765 0
1493 1114 0
1160 563 0
697 -179 1673 0
-1584 71 0
-494 240 0
887 1091 0
36 -928 385 0
1506 621 0
-158 1598 0
-1747 -661 1356 0
-1461 -461 1500 0
-231 -471 0
1699 -718 0
188 0
-689 83 0
1386 -1632 0
872 -321 0
-1296 1173 0
-1279 -355 0
-719 936 0
-275 -1287 0
506 1274 811 0
505 0
-474 1755 996 0
1628 1397 0
-938 -1237 0
1756 805 0
-1152 -16 0
310 -1586 0
-1740 1319 0
-645 -802 0
-590 -1409 0
-361 861 0
281 1595 0
1484 970 1747 0
-1553 1107 0
710 -464 1814 0
945 212 0
798 -164 0
-637 1184 0
-1460 1718 0
-119 1472 1373 0
1517 850 -1163 0
1411 1029 0
1674 -1317 0
-452 -942 0
1283 1316 -767 0
897 -306 0
1435 -499 1762 0
1142 1691 0
-1633 1478 0
1806 1574 -397 0
1729 -588 0
1534 -275 0
-747 -265 0
-613 -1447 -821 0
-557 -848 1186 0
1167 1596 0
1369 -1416 0
221 627 0
-1226 -1540 0
-714 -4 0
802 475 0
-480 886 0
9 54 0
763 -906 0
832 0
10 -855 -713 0
415 1392 1605 0
1228 1674 0
-173 -872 0
673 1158 0
234 -1261 -840 0
361 -110 1414 0
-127 890 0
1217 745 -921 0
-533 -1134 841 0
159 391 0
1403 543 -1095 0
502 1520 -711 0
1006 1549 -1366 0
-524 -690 0
-991 -1657 -1014 0
-358 1177 0
744 -1083 0
-304 -726 -479 0
588 766 -1729 0
1259 -629 0
1275 -1644 0
-1160 1071 -815 0
726 -1643 0
-489 1647 0
1245 530 0
-721 739 -1069 0
1522 534 0
499 -1435 0
-1727 63 0
-1495 1659 1261 0
-765 -918 0
388 1239 0
-7 -1498 -53 0
1800 1032 0
-1291 423 0
-1570 -907 0
18 -1215 142 0
1408 616 0
74 -284 0
-247 509 -898 0
-559 384 1104 0
1813 -975 0
-324 -556 0
-251 -1802 0
718 -1497 1272 0
-471 1712 0
138 391 0
1797 -1485 0
-1564 -203 0
1358 1367 -931 0
140 1517 0
-1499 -210 0
686 674 0
198 1365 274 0
926 -803 0
-1076 -1172 0
1597 128 -491 0
81 -959 0
997 1640 0
-954 602 0
-92 226 0
-890 -1621 127 0
604 -1758 595 0
-1420 1035 -1505 0
-324 1098 0
611 -187 0
-693 -258 -5 0
-425 215 1045 0
-815 -803 0
508 1644 -1275 0
511 177 0
483 -433 0
51 0
-426 -1009 0
-128 491 0
-530 -1599 -1258 0
-1177 -1586 358 0
-649 1650 0
1723 193 0
-1112 1391 0
-496 -890 0
-1116 120 -1440 0
-569 147 0
831 -791 -1045 0
392 -527 365 0
1677 1535 0
-1378 1668 1120 0
-943 -1044 722 0
1555 -549 0
1547 -165 1658 0
-1403 -1556 0
-592 1185 -731 0
792 -76 1807 0
-789 850 0
461 -1500 0
-1431 -1445 0
-827 141 0
1752 -1192 0
-1673 -697 1104 0
-265 1720 0
-174 -627 0
-1222 -1485 0
807 -1306 0
87 207 0
1154 72 0
1643 -576 0
-1136 1468 0
1683 433 0
-1502 235 -180 0
-1122 93 1041 0
-1606 126 0
950 -487 0
1585 902 202 0
961 1215 0
-714 191 0
-1564 -1440 -687 0
771 -330 1714 0
-1541 -954 -103 0
-356 1103 0
521 569 -147 0
-611 -1822 0
-1219 1115 0
-349 -811 0
1267 1062 0
141 -1802 0
208 1193 -919 0
-1801 -1132 0
815 803 0
-1805 284 -1351 0
567 -1202 0
-1146 1244 -366 0
1732 -656 0
-142 -18 0
-1310 1629 819 0
-99 -912 0
814 -1348 0
-204 64 0
-507 -1477 0
484 1043 0
197 -737 0
-102 1771 0
615 1237 0
-1549 -1468 -492 0
-438 1635 0
-243 -856 0
1383 -1266 -654 0
808 -1336 0
1627 -1251 -1660 0
-235 1502 0
-1356 661 0
1533 259 0
-1363 -884 406 0
-507 53 1456 0
-533 -519 0
587 865 1692 0
1246 -1048 0
1761 0
-805 1400 -819 0
-1368 -1120 -98 0
181 -1651 0
23 -1010 1062 0
136 1092 0
-531 -1111 0
-1713 -1002 0
-676 -1123 0
1185 -1808 0
1781 -1457 0
1184 -334 0
-1219 509 0
1058 942 0
159 -1075 -421 0
1631 118 0
1818 1804 0
490 1439 -124 0
-209 -1001 0
-440 -703 0
-644 -110 -579 0
419 966 0
1395 -877 -989 0
640 789 52 0
1326 36 0
-414 806 0
-423 1814 0
-1369 -1561 -1496 0
-31 1582 0
-218 -119 0
-325 -795 0
-73 0
761 -546 0
-124 0
1347 -1722 0
1208 320 351 0
-1611 -1371 0
-861 361 0
-247 -445 0
-59 -141 0
-728 -173 0
-1244 1146 0
-176 669 0
508 226 0
1398 -1254 0
-1192 688 -1058 0
-1664 -742 0
-310 -762 0
-42 1636 0
1669 497 0
1179 794 1687 0
1183 -1659 0
-1574 397 0
-1503 199 0
979 -640 0
-1284 -690 1434 0
1156 -1053 0
-1282 0
-1598 -1449 1231 0
1738 -971 0
1660 -874 -1672 0
-519 137 0
1580 -993 -326 0
177 876 0
934 1024 1718 0
-1200 0
-1787 -1268 0
-1167 1764 -386 0
-1110 -952 0
-621 -50 0
-304 -1608 0
-1582 878 0
-30 -603 0
787 -939 781 0
178 112 0
651 419 0
-1629 1310 0
-427 -1179 0
201 -1467 0
221 -1155 1516 0
137 1376 0
-987 -1077 -136 0
-1558 0
340 -797 -1359 0
1378 -1120 1526 0
-944 -292 1241 0
-1311 -1305 0
-789 -52 0
-1283 767 219 0
556 26 0
-1627 1251 0
589 565 0
501 346 0
973 1491 0
-1610 1326 0
-600 -593 0
-1450 -1108 0
-126 -61 0
-1261 -1659 0
-1808 -592 0
403 614 0
1336 1510 -43 0
-1800 305 0
859 1809 0
-1821 0
-948 350 -670 0
533 -841 -149 0
1466 -297 0
-1033 -652 0
1056 -569 0
-1021 -303 0
-1128 0
-1232 1108 0
-1374 756 0
771 1495 -1694 0
-1661 -1629 0
445 -402 247 0
1505 -1432 0
939 1005 0
-467 -1133 0
1729 -839 0
108 618 0
-1069 1666 0
-11 -1670 0
768 -854 1315 0
-628 165 -332 0
567 24 0
1766 1399 -454 0
129 661 665 0
629 -728 0
1163 -1517 0
143 459 0
429 1006 -873 0
1233 -728 0
86 1626 0
1112 557 0
1655 1163 0
-743 958 548 0
-25 -1296 -84 0
-1428 -1480 -194 0
1251 1524 0
-496 1590 0
182 -1038 -1803 0
245 516 0
-1153 -513 0
-952 -947 0
889 1101 0
-436 1375 1234 0
-717 774 0
-444 133 0
1027 -1770 407 0
1746 -1555 0
249 258 0
-4 1634 0
-285 -1721 0
-1610 -105 0
-1510 -276 0
-1028 -564 0
1328 571 0
-1218 1666 0
594 800 0
-68 -32 1433 0
293 -224 0
1490 -355 0
659 -1196 0
714 -1 0
368 -1470 1779 0
53 7 0
-849 182 0
-681 -1017 -1180 0
-1764 386 0
-737 795 -1759 0
1089 0
588 0
-1258 -845 0
-936 1046 0
1773 1349 -190 0
915 -1297 0
-138 -391 0
-1346 1355 1735 0
-1057 1143 0
-986 -1382 0
-584 -308 0
-608 607 1117 0
-143 -542 1677 0
-156 432 0
-256 593 1064 0
952 947 1039 0
-1767 730 0
1468 1549 0
-1117 -607 0
-195 1573 0
149 841 0
-384 -351 0
104 -1158 0
812 -735 0
349 -45 0
-730 1568 0
727 -1071 1160 0
1196 1337 0
1202 1426 0
1037 518 0
-794 1308 0
-646 -1120 0
-1587 -1392 0
-1217 -734 0
-93 0
-157 -753 -5 0
1608 -1370 -1292 0
-1683 -433 0
507 1469 0
96 1653 0
-1346 -168 0
-1004 -1503 -437 0
1441 -1194 0
-1544 -1191 0
-1810 329 0
-709 -138 0
1773 -1122 -1116 0
778 -270 0
-299 627 0
-443 184 0
405 -667 1492 0
1061 460 0
1518 -309 -98 0
-1043 32 -486 0
-546 0
-611 -1224 -615 0
-1586 -1674 1317 0
-1560 1646 0
842 760 0
-1769 277 0
-1809 -1421 -859 0
-1187 -1597 0
-915 0
-6 0
820 197 0
-255 -1630 0
108 52 0
883 -458 0
-343 -560 0
879 -2 0
-1667 -293 0
-1531 -1518 98 0
1340 751 0
-1238 1542 0
-754 -131 0
296 -689 0
-411 -779 0
-787 -1609 0
587 560 0
1750 1133 0
-1503 842 0
1387 -194 0
-1615 0
1253 255 0
575 1365 0
409 -869 0
-1112 -387 0
833 1164 0
-629 728 0
-225 -553 0
-330 0
9 -1238 0
-1577 -1547 0
1004 437 0
1765 -882 0
-388 -227 0
-902 -951 1342 0
-1389 -1099 0
1196 -659 0
-1271 1799 0
205 1178 0
817 1278 0
877 989 0
705 -282 -171 0
-1098 181 324 0
743 -750 -548 0
1265 -1221 0
-581 -97 0
-111 34 0
-623 -154 0
307 -1603 1760 0
301 1554 0
1025 554 0
114 -132 0
1038 1803 0
859 1421 0
1474 -1518 0
1237 938 1822 0
1102 -975 0
678 -1342 0
-704 775 0
540 -910 0
-1444 1069 0
-885 -526 -381 0
-531 1731 0
-168 1320 0
1047 -1716 1730 0
-623 814 -234 0
982 683 0
540 103 1356 0
1143 -1140 893 0
1058 -688 0
-103 -1099 0
1361 -1207 0
-990 180 0
818 77 0
-362 -1546 0
775 -788 -99 0
183 1342 0
-1589 899 0
985 -412 -1270 0
1634 -48 0
691 885 -903 0
325 721 795 0
1823 1462 0
427 -1793 0
-153 558 0
92 1613 1036 0
1141 191 0
-1717 -213 0
1385 0
1767 -1216 0
855 -10 0
1496 1369 0
1191 1289 -1121 0
-1621 1489 0
-1622 -1089 -1551 0
1166 -1015 0
-1763 301 0
-850 -19 1163 0
-479 1370 0
1654 -418 1464 0
354 -1653 30 0
-820 1204 -197 0
-290 157 77 0
-137 -1121 -1376 0
-1432 -1105 0
-411 -125 1335 0
1355 -445 0
525 -1405 0
-1768 1721 -877 0
-1415 827 -1454 0
721 -739 0
-970 -1484 0
-1545 1718 1123 0
-688 858 0
-555 21 -1486 0
-1798 -594 0
1111 1471 531 0
-918 -211 -828 0
-1756 -805 0
555 -908 1486 0
-481 1417 0
466 1094 0
1561 1369 972 0
-846 413 0
1725 1814 -1211 0
506 151 0
158 -636 0
1708 603 0
-1821 -786 0
-1583 975 0
-1048 1341 0
-1756 865 0
-160 963 0
-1794 1230 0
1205 1651 0
-1415 0
724 243 0
-844 -853 0
-995 940 0
-483 0
269 1683 0
-903 -1299 -523 0
512 -1801 -1272 0
-1703 800 587 0
653 -504 0
-267 395 0
554 1710 0
355 1279 0
107 475 0
-257 -722 0
-1269 1238 0
-1309 895 0
1507 -89 0
1690 -866 0
-266 517 0
281 -1726 0
917 -1064 0
-687 -161 0
360 -1824 0
1056 994 0
1314 -848 0
1362 -76 1422 0
-857 -1696 0
-159 -1322 0
83 -790 0
106 892 0
440 761 0
-1281 1069 -1413 0
-33 850 0
-496 1372 0
-539 -280 0
1131 437 0
-1198 1341 1411 0
1307 -764 0
413 57 0
605 524 0
407 348 -626 0
-11 -1187 -1789 0
-989 -515 -1515 0
-979 1391 640 0
-1060 -1328 -571 0
1142 1341 0
548 750 0
147 -176 0
-17 353 0
-633 -660 -550 0
1225 373 -280 0
1510 -767 276 0
-460 86 -1662 0
-534 -1077 0
868 659 0
355 -1490 691 0
-593 256 0
-746 498 0
-69 -75 0
-765 -474 0
-1637 -1150 0
1820 0
389 -1015 0
1270 -1572 0
1803 -1788 -182 0
916 -465 0
587 594 0
-1263 1010 0
469 880 0
-608 -1416 0
-1612 375 0
-622 345 0
-1670 1561 0
412 -1704 0
1571 0
221 -41 0
1430 0
-721 -325 0
-1025 -554 0
1438 101 0
-1640 1377 -997 0
860 387 0
-512 -488 1272 0
-1808 1436 0
1232 0
890 -1345 0
-99 1786 0
-1459 1773 0
-724 -243 -265 0
-818 -77 0
919 -1193 0
1479 104 0
1127 -1111 0
-254 1313 0
1566 0
43 -868 -659 0
1638 504 0
-1580 993 0
-1820 -1407 0
-1535 -1677 0
713 -10 0
1655 272 0
-681 1421 0
-1570 -133 0
-1764 -1476 0
-636 -514 0
-172 353 -1022 0
733 635 0
439 1072 0
-1561 1482 0
1532 -708 0
-59 639 0
-1265 1488 1221 0
-1094 -1548 1101 0
552 -1110 186 0
267 0
-1474 -243 1518 0
1009 892 0
-619 -1506 1256 0
1611 1371 0
-15 1013 0
-1343 -1583 0
798 1690 0
-294 1525 327 0
-924 -760 0
1224 615 0
-1159 0
-812 735 -3 0
-1794 -1746 0
-747 913 0
-1579 -1056 0
-1534 1165 -1133 0
-1250 1483 0
1290 1726 0
552 -1039 0
-1650 630 0
22 189 0
873 -429 0
-686 799 0
-1565 -1700 1380 0
742 0
-638 -1328 0
98 1368 0
501 582 -1262 0
1663 -1599 1769 0
620 1650 0
-1821 599 0
1601 1100 -265 0
-336 -838 0
-1282 -625 0
-788 995 0
895 -1680 0
-1769 578 1599 0
-932 -1739 0
-1235 1209 0
627 174 0
-106 -892 1737 0
434 1107 0
-278 -495 0
-927 458 -904 0
1471 -1410 0
-891 -1675 0
-473 -851 0
-378 1247 710 0
289 547 0
-1293 596 -1070 0
-1719 -697 1616 0
1310 -782 0
748 1276 1359 0
1198 -1341 0
-1306 -394 0
-526 599 0
-1020 -597 0
-1029 90 -1318 0
710 -423 0
-944 777 0
-1562 58 1584 0
-702 -89 0
1628 -669 0
-692 -373 0
-103 -540 0
149 -533 0
142 0
-1110 -1262 -193 0
492 1549 0
1728 1008 -224 0
1208 0
1182 -357 0
317 -745 950 0
-158 636 -1740 0
-383 -1576 45 0
1429 1264 -1568 0
881 35 0
-553 -1384 0
-1726 -1290 0
-981 -732 0
-661 -910 0
283 -1088 -236 0
1178 -1026 -970 0
607 -1416 0
-1635 -500 0
-521 1199 774 0
56 -1221 0
1688 1525 -1211 0
888 -1645 0
1636 -1746 0
1577 1547 0
-1119 -839 -262 0
-893 591 0
1637 1810 1150 0
-955 -1043 0
1683 1748 0
-438 505 0
1023 -1423 0
1214 308 829 0
1306 -339 0
1417 -854 0
-1562 1647 0
816 -1106 0
755 754 0
1253 276 0
-667 1076 -1656 0
-1802 1823 0
160 -1455 0
-1803 1788 0
209 1740 158 0
63 285 0
613 821 0
-88 1550 0
-679 1373 -408 0
188 486 0
213 755 0
-1273 -853 0
1564 687 161 0
-813 1347 0
-1072 -439 0
603 1145 30 0
-66 -385 0
-581 -350 0
1359 797 0
464 -441 0
-86 456 0
1729 -1119 0
-949 -684 0
692 412 373 0
1705 -708 -1681 0
-1639 -89 0
1627 1288 1419 0
319 -876 -177 0
-1117 -1257 0
613 0
-741 877 -1395 0
-130 1316 655 0
-54 -316 0
-1418 -1458 0
-926 1241 1379 0
-81 295 0
-512 1275 1157 0
-587 -1692 0
533 1051 0
791 -1757 0
869 -409 0
-1527 1516 0
338 1420 0
1181 -516 0
569 -1056 1255 0
610 -416 0
-1477 -793 0
-1630 0
-1762 -1435 0
208 1676 0
651 -1030 0
-1766 769 -348 0
-1717 -754 0
1488 151 0
-469 -880 0
476 39 0
1512 -1082 -1530 0
-703 1329 0
997 -1377 0
-1129 1333 0
12 1704 -1168 0
-1492 1520 0
-641 -902 0
1767 1750 0
-996 -936 701 0
1643 -868 -726 0
-933 -1504 0
-1755 1580 0
573 -1618 -299 0
-1325 -1719 0
-559 179 0
-1066 -734 772 0
690 -427 1793 0
1366 -1014 0
170 936 996 0
-648 -1277 1040 0
675 -1768 0
-1555 931 0
-457 541 -1220 0
-231 162 -1050 0
1480 -1387 194 0
116 -1494 0
1786 -1302 0
-1249 1128 528 0
-93 -1041 0
-1592 -307 0
194 1428 0
-69 -1148 804 0
-462 1426 0
-417 1229 0
849 -960 0
489 -58 0
-691 1490 0
-1106 417 0
-342 447 -809 0
-522 1714 0
315 978 0
1285 28 -1706 0
-367 -763 0
-1781 1457 0
-157 -77 0
-91 -1352 0
-994 -566 206 0
1043 34 0
-1139 240 0
-461 -1106 -1000 0
-830 -713 0
-1567 -101 0
-232 -1607 0
1404 -1098 -1205 0
556 324 -277 0
1079 938 0
-875 -1016 0
-227 -347 0
-1480 -754 -1734 0
1050 435 0
452 300 0
1074 -1749 0
-642 -906 0
-1669 -961 -1215 0
-275 1305 74 0
828 211 0
-575 100 0
-1322 -709 0
-1005 1569 0
558 360 0
-271 -1422 0
89 272 -1507 0
222 -624 0
-1375 370 0
8 -796 0
-1002 0
155 811 349 0
63 66 0
-1617 -519 0
908 -555 0
1716 -1730 0
-474 326 0
1046 545 0
1322 709 138 0
561 -336 0
950 -1550 -859 0
358 -664 0
-387 1464 -860 0
-1165 -857 757 0
173 728 -1233 0
1168 692 0
-851 -512 0
-1349 190 0
-1590 -1345 0
467 1133 -1165 0
1645 -888 0
-189 547 -22 0
1447 613 0
1414 222 0
1023 1694 0
-1146 0
-1139 -1092 -1648 0
1002 -987 1713 0
88 0
-239 246 0
1644 273 0
-14 1087 115 0
-946 -974 0
1007 -1615 0
-1560 -1707 0
1296 1238 -9 0
1035 1696 94 0
-43 868 1059 0
1665 -1172 0
-409 1785 0
1449 -1486 1450 0
-100 229 228 0
-1431 -447 0
-845 -468 0
-492 1295 0
-1018 188 0
-1085 447 0
-1010 498 0
-802 -107 -475 0
1172 0
1310 929 -819 0
35 508 0
734 -772 0
-1806 1352 -1574 0
-1471 -531 0
1713 1401 0
14 165 0
-1605 -1392 0
1401 -1077 0
-1269 1296 0
-894 277 0
-1272 1497 0
-11 909 0
1589 -680 0
-950 -317 0
-1682 -773 0
107 802 645 0
-1189 1606 0
110 -1414 -222 0
-1320 344 -923 0
757 -449 0
1626 1067 0
103 1541 1099 0
1503 437 0
-985 -166 0
-1612 1796 0
902 261 0
-404 -1265 0
387 -1186 0
834 285 1721 0
831 220 0
1738 -913 0
658 354 0
169 -1309 0
-1563 543 0
-949 -1240 0
81 -816 1106 0
-1736 511 0
-1034 1130 0
-1284 -524 0
-534 746 0
1314 -396 0
-1224 863 0
362 1203 0
485 -704 0
-374 1207 0
460 1662 0
-120 161 0
-1499 55 0
907 -1322 0
-1720 1693 -224 0
-850 -1517 0
1515 989 0
-1733 -785 216 0
1645 -684 0
-143 -459 -107 0
673 -1479 0
-1465 -908 -477 0
-421 269 -1305 0
1697 94 0
-929 -1310 0
-773 -1042 0
-314 -372 0
-1694 -522 0
969 -395 267 0
1518 1531 0
392 -1735 0
871 1225 0
-1281 44 0
220 1425 0
1122 -93 0
1589 419 -899 0
701 847 -450 0
-1478 1503 1004 0
-432 156 0
1156 0
654 -1383 0
1268 390 -1625 0
1249 -1128 0
726 304 0
1605 -1031 -905 0
339 -1604 0
127 282 0
-1438 -1782 0
1125 -50 0
-1159 653 0
223 1040 0
65 199 0
-1696 -1035 0
269 -1311 0
-1632 96 0
1551 -1088 0
-1585 -202 0
-813 -1818 0
1305 1351 0
-1321 233 576 0
1000 -1619 0
-1495 -771 0
1377 1541 -542 0
270 1191 0
248 869 479 0
-938 -1822 0
184 1612 -375 0
328 1552 0
-958 743 0
-584 1672 -1294 0
-1234 -589 -1375 0
-70 -867 0
1596 -1476 -988 0
-1330 1424 0
684 -553 0
-563 -835 0
85 961 1669 0
-862 1638 -1648 0
-253 -1384 0
-1292 0
1051 -78 0
1679 -866 0
-271 664 0
1395 20 0
1101 -601 0
1016 875 0
1405 -525 0
730 -1649 0
1661 1629 0
1331 1554 1649 0
368 -538 0
1195 1783 0
-1209 1203 -992 0
-1064 -239 0
298 -499 0
642 906 0
1082 -1180 0
376 0
-121 -1380 0
-1114 -1493 0
-1718 -1024 1460 0
184 217 0
-1185 846 -520 0
64 -1654 -1464 0
920 111 0
948 -350 0
-821 -638 0
1540 529 0
1498 7 0
136 987 0
-1193 -1249 0
1367 770 0
452 942 -306 0
-489 544 0
-1488 404 1265 0
693 258 0
1267 489 0
1375 589 0
-574 -46 0
1330 242 0
1274 1741 0
1220 8 0
-885 -786 0
1135 -971 0
-561 336 0
-1412 1190 0
941 -1004 720 0
-295 286 0
1170 463 0
-582 -337 -300 0
-1702 -1582 0
-1520 711 0
26 1769 0
-1075 -1311 0
-422 -708 0
387 -146 -1464 0
384 -1327 0
-1298 -1567 0
1283 -219 0
-1153 -1642 0
346 -1430 0
-1259 0
1105 1154 0
-152 0
874 1672 0
-130 -219 0
397 -1806 0
1535 -107 0
-808 1336 0
1155 -1621 0
459 107 -1535 0
1207 -1361 0
1181 -1004 0
-893 1140 0
685 -182 849 0
1231 -105 0
1634 536 -1137 0
1269 -1238 -1296 0
500 1469 0
-1762 374 -940 0
-1754 742 1664 0
-879 -1299 -971 0
-828 -765 0
770 -1003 0
680 -1589 0
-102 718 0
1632 -1386 0
159 -907 1322 0
1633 0
1190 -1304 0
-831 -16 0
-244 1701 0
283 44 0
-316 -555 1709 0
669 -1188 0
-456 3 86 0
1628 -759 0
918 -538 0
-973 -976 0
-1327 320 0
-1347 -607 1722 0
1102 1334 0
1438 -978 0
1681 708 0
-21 -1465 0
68 -1433 0
224 -1693 0
-759 1188 162 0
590 1199 0
732 -1445 -1796 0
-1045 220 0
-911 -434 0
1105 -1312 -1141 0
-189 289 0
166 985 0
-1442 0
1780 1751 1054 0
-1645 1777 684 0
-1495 1694 522 0
1315 678 0
570 -146 0
-1441 289 0
1441 -289 0
-592 1771 -1497 0
-1665 49 0
-290 1031 0
229 -538 0
1158 -1479 -104 0
133 -1025 0
341 870 0
-1195 -1783 1758 0
421 1305 0
-518 -88 0
1764 1476 0
-1520 -502 1500 0
