c gate-hidden Tseitin benchmark; semantic labels withheld
p cnf 304 736
86 0
-164 6 -147 0
102 58 -94 0
53 -139 0
205 -181 0
252 133 -34 0
92 0
150 -79 0
-153 -278 0
1 36 0
-59 41 194 0
33 216 0
-273 113 0
-126 -69 0
-40 255 0
-144 233 0
188 75 -101 0
-65 167 -185 0
-208 274 0
-268 272 0
-260 -109 0
237 225 -234 0
-253 19 0
200 -91 0
-132 -273 0
49 109 -267 0
-296 193 0
-92 137 -73 0
15 -153 -25 0
64 -290 0
-151 -120 0
-7 -107 0
-71 0
-303 -46 -223 0
-128 -225 194 0
127 -197 0
-84 203 0
-67 96 0
-74 -207 0
220 275 46 0
-106 43 0
-84 185 0
244 -35 0
-71 -231 0
-37 -71 0
34 0
166 -11 -243 0
1 -145 0
-294 -81 0
241 44 293 0
186 -107 0
117 -22 -202 0
148 -127 0
155 30 0
254 216 0
25 -15 0
18 50 -189 0
-25 -278 0
-81 -196 204 0
-123 2 0
-128 -236 0
49 -290 0
101 -188 0
138 275 0
66 -245 0
-177 256 259 0
-67 253 0
219 -172 0
73 92 0
-157 104 0
287 -257 0
181 0
-90 175 -242 0
-186 -18 0
-237 77 0
-161 -62 0
-13 55 0
-205 233 0
-206 278 -187 0
-7 -208 0
27 -209 0
-72 -159 198 0
209 -27 0
263 -30 -245 0
-95 -90 0
296 -52 0
183 -247 0
291 -6 0
-40 78 62 0
-172 -256 0
-253 -52 0
-292 -124 0
87 -289 0
222 -14 -119 0
-165 7 0
281 -149 0
153 -15 0
-36 -69 0
300 -162 0
64 279 0
37 71 231 0
-37 -69 0
275 -276 0
-124 -265 0
-94 299 0
111 149 0
210 -184 0
-5 42 0
-302 0
-270 83 0
158 0
-198 -300 162 0
-73 -55 -300 0
214 195 175 0
245 -66 30 0
-43 106 0
-11 19 0
-47 25 238 0
-297 77 0
-274 208 0
102 -98 78 0
194 -252 0
89 -238 0
-121 -42 -147 0
72 82 0
-164 200 0
-18 189 0
-104 0
-106 -147 0
177 -259 0
-85 234 0
128 225 0
98 -299 0
94 -102 0
112 251 0
202 -117 0
-159 99 0
-94 -247 0
242 90 0
-204 196 0
145 -271 12 0
-61 167 0
-136 246 0
-32 -117 0
-180 264 0
-194 -212 225 0
-58 -299 94 0
268 -246 0
143 25 0
-4 -131 0
-250 -14 0
-130 140 0
103 -281 0
113 -105 0
-152 -232 0
-161 0
268 -201 0
168 261 0
-241 -293 0
24 -35 0
300 198 118 0
242 -175 0
-5 16 0
193 124 0
20 112 0
-149 -304 243 0
298 -58 0
297 -199 0
167 93 -262 0
-50 189 0
-254 -216 -54 0
54 216 -173 0
-182 57 -40 0
-22 -298 58 0
-164 236 -212 0
-162 -259 0
147 42 106 0
32 117 82 0
53 -37 0
227 118 0
-262 -169 -110 0
-240 130 0
-146 -255 0
72 -198 0
-123 1 0
243 11 0
-7 18 186 0
-57 182 0
-222 119 0
198 -32 0
255 146 0
73 55 0
-172 -211 0
292 257 -287 0
-162 198 0
212 164 0
164 147 -200 0
70 264 108 0
-105 -13 0
122 213 -174 0
-132 -48 0
154 138 0
107 -50 0
-240 -247 0
131 29 0
-214 -175 0
-228 69 0
290 217 -64 0
50 -107 0
245 -263 0
253 301 -19 0
110 61 0
-51 44 0
-99 207 119 0
22 202 0
235 152 0
-45 0
276 -275 -229 0
-131 103 0
-82 -117 0
89 -244 35 0
-142 -166 0
-154 0
-255 40 -57 0
-219 -182 146 0
188 99 0
-180 -2 0
-113 -268 246 0
296 -292 0
157 272 0
-258 -76 0
36 69 126 0
-241 -44 0
131 -103 -304 0
-85 0
265 139 124 0
223 303 0
-76 -173 0
-137 160 0
-289 105 0
234 -225 0
241 -176 0
168 -75 0
-232 295 0
-143 -25 47 0
279 80 0
190 86 0
-124 -139 0
-112 -240 -251 0
25 153 278 0
-228 -53 0
-114 -75 -188 0
86 -156 0
101 -88 0
145 -126 0
210 224 0
2 -149 0
-155 5 -42 0
-118 -198 0
-108 -264 0
303 -165 0
145 229 0
159 72 0
-61 -110 0
-51 178 0
156 119 14 0
40 -28 -78 0
-39 89 0
206 -278 0
115 -177 280 0
97 -197 0
-14 -156 0
20 166 0
30 -263 0
266 256 0
77 -267 0
105 -136 0
-265 129 0
296 67 -253 0
192 283 0
-269 -129 0
-194 -41 0
-224 -46 0
23 142 166 0
-159 -32 0
134 -9 -203 0
-282 -174 0
285 248 0
-214 54 0
-244 63 0
6 -291 -91 0
268 -272 70 0
-129 265 0
-275 -138 -46 0
114 188 0
48 273 132 0
-130 240 112 0
-179 94 0
-26 183 179 0
144 226 0
-150 233 0
-213 -122 0
147 121 0
11 -19 0
-215 150 0
-221 115 0
221 -259 -256 0
-277 -43 0
151 225 0
-280 -115 0
113 268 0
147 -6 0
-123 126 -145 0
70 -3 0
112 -17 0
-230 -29 0
-220 -46 0
171 0
-147 200 0
-139 269 0
69 -53 37 0
270 -83 0
-230 -302 0
281 243 0
-25 -238 0
-10 0
171 -79 0
52 96 38 0
59 -41 0
-4 -302 0
269 -29 -131 0
284 161 62 0
11 -166 0
244 -64 -279 0
-263 249 0
-214 -195 0
-171 239 79 0
-10 -248 -202 0
-97 197 0
-60 -279 -80 0
185 -167 0
-160 -55 0
-170 100 0
3 -192 -283 0
-289 -21 0
-228 231 0
-235 -152 0
-105 289 21 0
60 -141 0
-203 -109 84 0
39 143 0
190 222 0
273 105 -113 0
-103 281 0
-176 116 0
14 -27 0
215 -150 -144 0
212 194 0
-70 -108 0
205 -233 0
-187 -15 0
191 95 0
-168 -261 0
-67 -296 0
-3 264 0
-216 241 -33 0
235 57 0
-243 304 0
149 123 -2 0
174 282 0
76 -254 258 0
-231 228 0
270 -273 -48 0
111 123 0
236 128 0
229 -271 0
-167 65 0
-204 -213 0
-286 75 0
-225 212 0
165 -21 -7 0
185 -195 0
-27 48 0
-127 -209 0
217 267 -109 0
-204 47 0
-266 -125 0
140 -158 0
203 -134 0
-189 0
-82 -72 0
-258 254 0
186 -88 -114 0
-287 193 0
-272 -157 0
-199 163 0
-227 -118 0
-267 199 -297 0
267 -49 0
14 250 48 0
201 -104 157 0
-31 220 0
240 94 247 0
-95 175 0
-295 152 232 0
26 -179 0
68 -84 -195 0
-9 -260 0
176 216 -241 0
-280 177 0
-135 -58 22 0
-59 -252 0
-222 -190 0
-183 26 0
-303 -224 0
-165 21 0
195 170 0
-183 247 0
-253 -301 0
-62 -78 0
40 182 0
-100 214 -54 0
-23 -282 0
295 -57 0
-136 273 0
-213 47 294 0
256 -221 0
65 68 0
-234 120 85 0
-188 74 0
91 291 0
-163 -237 0
142 -17 0
-89 39 238 0
-248 -285 0
-229 271 -145 0
101 -75 0
-217 -267 0
28 -40 0
-223 184 -210 0
-28 -284 0
-291 0
-244 279 0
-26 -150 79 0
249 56 0
-47 143 0
-30 -16 0
-178 -293 0
-20 -166 -23 0
-216 -176 0
-220 -275 0
237 -77 163 0
-294 213 0
-74 -159 188 0
218 0
-31 154 0
57 255 0
136 -105 -273 0
-280 0
-295 57 134 0
148 -271 0
-239 8 0
180 -111 -264 0
-127 -250 0
-197 271 0
21 -13 0
-186 88 0
-252 34 0
-54 173 0
-277 0
-70 272 0
269 -4 0
-198 32 159 0
182 219 0
-190 -86 156 0
-90 -75 286 0
-96 67 0
80 0
-221 259 0
150 -233 144 0
121 42 0
-116 176 0
129 269 53 0
-285 -22 0
184 0
43 277 -121 0
178 -282 0
-191 -95 0
-274 303 0
245 242 0
223 -184 0
-151 -225 -237 0
-133 41 0
228 53 -69 0
164 -6 0
169 110 0
299 58 0
-199 267 0
-283 -108 0
80 60 0
177 -256 0
-117 285 22 0
13 -55 87 0
170 -100 0
284 28 0
-85 -120 0
-286 -59 0
273 -270 0
230 302 4 0
261 286 59 0
-243 -281 149 0
-215 -181 0
34 -133 0
-135 226 0
-178 -297 51 0
-93 155 0
262 169 0
55 300 160 0
229 275 0
93 -16 0
288 -116 0
297 -51 0
-213 174 0
-246 136 0
81 196 0
124 292 -296 0
-39 -143 0
12 -276 0
46 224 303 0
135 58 0
218 -97 0
-132 -153 0
234 -237 0
-240 179 -94 0
64 -244 -141 0
74 159 0
33 288 0
-93 262 0
149 304 0
91 -200 0
-303 165 274 0
-249 0
135 -22 0
-220 31 0
48 -270 0
17 -142 0
21 208 7 0
144 -215 0
20 23 0
92 -137 0
84 -260 0
166 -301 0
141 -60 0
170 175 0
298 22 0
-277 121 0
-285 117 0
-297 -293 0
-298 -144 -226 0
-160 -300 0
-175 -170 -195 0
-23 -142 0
64 -217 0
66 -30 0
192 0
-146 219 0
127 -148 271 0
-208 -21 0
-206 0
35 -24 0
168 -90 0
-257 -292 0
-45 63 0
-264 -70 3 0
-68 84 0
29 230 0
63 89 0
237 151 0
2 180 0
46 223 0
203 109 0
-286 90 0
-238 47 0
-101 88 0
105 -21 13 0
-261 -59 0
7 -186 107 0
-65 -68 0
-8 -150 0
-1 123 145 0
276 -12 0
191 245 0
-258 0
289 -87 0
123 -126 0
132 83 153 0
248 10 0
141 244 0
287 -193 0
-119 -156 0
120 151 0
294 81 0
-124 -193 296 0
137 -160 0
199 -163 0
-118 -300 0
207 74 0
-235 -57 -134 0
-179 240 0
54 254 0
-52 -38 0
202 10 0
-196 0
-42 -106 0
262 -167 0
169 0
-45 -24 0
-194 128 0
15 187 0
197 -127 -271 0
-153 -83 0
-33 -288 116 0
104 -201 0
221 -115 0
266 125 0
288 0
-96 -38 0
304 -131 0
-63 45 24 0
98 -78 0
-266 219 -256 0
31 -138 -154 0
-161 -284 0
-224 -210 0
33 -241 0
-112 130 0
-102 -58 0
42 155 0
-259 227 0
-269 4 131 0
-188 159 -99 0
251 -158 0
218 148 0
-211 0
-68 195 0
114 75 0
55 -87 0
-8 239 0
300 73 0
-49 -109 0
243 301 -166 0
164 -236 0
263 -249 -56 0
-48 -14 27 0
290 -49 0
130 -140 0
-30 -155 93 0
-226 135 0
158 -140 -251 0
-26 -8 0
9 -134 0
122 -23 178 0
141 -64 0
56 -66 0
-89 -35 0
-3 192 0
298 144 0
-145 -12 0
99 -119 0
100 54 0
-122 23 0
240 251 0
108 283 0
-102 -78 0
75 -168 90 0
-175 90 95 0
61 -167 -93 0
138 46 0
257 0
-48 -250 0
-178 23 282 0
-201 70 0
-242 -245 -191 0
-222 14 0
260 109 -84 0
213 -47 204 0
5 -16 0
-53 -269 139 0
-20 17 -112 0
109 -217 0
-79 26 0
134 235 0
-219 172 256 0
271 -12 0
-123 -149 -111 0
29 -269 0
40 -62 0
-219 266 0
293 178 297 0
114 -186 0
-207 -119 0
211 125 172 0
-47 -294 0
299 -98 0
250 127 209 0
-1 -36 0
76 173 0
-243 -301 0
195 -185 84 0
173 -216 0
-63 -89 244 0
201 -268 -70 0
38 0
-56 66 0
7 -18 0
-122 -178 0
111 264 0
295 -134 0
93 -61 0
252 59 -194 0
-44 51 0
259 -227 162 0
-41 133 0
171 -239 0
30 -93 16 0
52 253 -296 0
181 215 -205 0
-218 97 -148 0
187 206 0
28 78 0
9 260 0
-232 0
-129 -53 0
-125 -211 0
-77 297 267 0
26 150 8 0
